LAMMPS data file: HBV capsid CG Go model

596 atoms
2256 bonds

596 atom types
2126 bond types

6.4190 189.5780 xlo xhi
12.0120 187.3900 ylo yhi
-111.4790 90.0670 zlo zhi

Masses

1  110.0
2  110.0
3  110.0
4  110.0
5  110.0
6  110.0
7  110.0
8  110.0
9  110.0
10  110.0
11  110.0
12  110.0
13  110.0
14  110.0
15  110.0
16  110.0
17  110.0
18  110.0
19  110.0
20  110.0
21  110.0
22  110.0
23  110.0
24  110.0
25  110.0
26  110.0
27  110.0
28  110.0
29  110.0
30  110.0
31  110.0
32  110.0
33  110.0
34  110.0
35  110.0
36  110.0
37  110.0
38  110.0
39  110.0
40  110.0
41  110.0
42  110.0
43  110.0
44  110.0
45  110.0
46  110.0
47  110.0
48  110.0
49  110.0
50  110.0
51  110.0
52  110.0
53  110.0
54  110.0
55  110.0
56  110.0
57  110.0
58  110.0
59  110.0
60  110.0
61  110.0
62  110.0
63  110.0
64  110.0
65  110.0
66  110.0
67  110.0
68  110.0
69  110.0
70  110.0
71  110.0
72  110.0
73  110.0
74  110.0
75  110.0
76  110.0
77  110.0
78  110.0
79  110.0
80  110.0
81  110.0
82  110.0
83  110.0
84  110.0
85  110.0
86  110.0
87  110.0
88  110.0
89  110.0
90  110.0
91  110.0
92  110.0
93  110.0
94  110.0
95  110.0
96  110.0
97  110.0
98  110.0
99  110.0
100  110.0
101  110.0
102  110.0
103  110.0
104  110.0
105  110.0
106  110.0
107  110.0
108  110.0
109  110.0
110  110.0
111  110.0
112  110.0
113  110.0
114  110.0
115  110.0
116  110.0
117  110.0
118  110.0
119  110.0
120  110.0
121  110.0
122  110.0
123  110.0
124  110.0
125  110.0
126  110.0
127  110.0
128  110.0
129  110.0
130  110.0
131  110.0
132  110.0
133  110.0
134  110.0
135  110.0
136  110.0
137  110.0
138  110.0
139  110.0
140  110.0
141  110.0
142  110.0
143  110.0
144  110.0
145  110.0
146  110.0
147  110.0
148  110.0
149  110.0
150  110.0
151  110.0
152  110.0
153  110.0
154  110.0
155  110.0
156  110.0
157  110.0
158  110.0
159  110.0
160  110.0
161  110.0
162  110.0
163  110.0
164  110.0
165  110.0
166  110.0
167  110.0
168  110.0
169  110.0
170  110.0
171  110.0
172  110.0
173  110.0
174  110.0
175  110.0
176  110.0
177  110.0
178  110.0
179  110.0
180  110.0
181  110.0
182  110.0
183  110.0
184  110.0
185  110.0
186  110.0
187  110.0
188  110.0
189  110.0
190  110.0
191  110.0
192  110.0
193  110.0
194  110.0
195  110.0
196  110.0
197  110.0
198  110.0
199  110.0
200  110.0
201  110.0
202  110.0
203  110.0
204  110.0
205  110.0
206  110.0
207  110.0
208  110.0
209  110.0
210  110.0
211  110.0
212  110.0
213  110.0
214  110.0
215  110.0
216  110.0
217  110.0
218  110.0
219  110.0
220  110.0
221  110.0
222  110.0
223  110.0
224  110.0
225  110.0
226  110.0
227  110.0
228  110.0
229  110.0
230  110.0
231  110.0
232  110.0
233  110.0
234  110.0
235  110.0
236  110.0
237  110.0
238  110.0
239  110.0
240  110.0
241  110.0
242  110.0
243  110.0
244  110.0
245  110.0
246  110.0
247  110.0
248  110.0
249  110.0
250  110.0
251  110.0
252  110.0
253  110.0
254  110.0
255  110.0
256  110.0
257  110.0
258  110.0
259  110.0
260  110.0
261  110.0
262  110.0
263  110.0
264  110.0
265  110.0
266  110.0
267  110.0
268  110.0
269  110.0
270  110.0
271  110.0
272  110.0
273  110.0
274  110.0
275  110.0
276  110.0
277  110.0
278  110.0
279  110.0
280  110.0
281  110.0
282  110.0
283  110.0
284  110.0
285  110.0
286  110.0
287  110.0
288  110.0
289  110.0
290  110.0
291  110.0
292  110.0
293  110.0
294  110.0
295  110.0
296  110.0
297  110.0
298  110.0
299  110.0
300  110.0
301  110.0
302  110.0
303  110.0
304  110.0
305  110.0
306  110.0
307  110.0
308  110.0
309  110.0
310  110.0
311  110.0
312  110.0
313  110.0
314  110.0
315  110.0
316  110.0
317  110.0
318  110.0
319  110.0
320  110.0
321  110.0
322  110.0
323  110.0
324  110.0
325  110.0
326  110.0
327  110.0
328  110.0
329  110.0
330  110.0
331  110.0
332  110.0
333  110.0
334  110.0
335  110.0
336  110.0
337  110.0
338  110.0
339  110.0
340  110.0
341  110.0
342  110.0
343  110.0
344  110.0
345  110.0
346  110.0
347  110.0
348  110.0
349  110.0
350  110.0
351  110.0
352  110.0
353  110.0
354  110.0
355  110.0
356  110.0
357  110.0
358  110.0
359  110.0
360  110.0
361  110.0
362  110.0
363  110.0
364  110.0
365  110.0
366  110.0
367  110.0
368  110.0
369  110.0
370  110.0
371  110.0
372  110.0
373  110.0
374  110.0
375  110.0
376  110.0
377  110.0
378  110.0
379  110.0
380  110.0
381  110.0
382  110.0
383  110.0
384  110.0
385  110.0
386  110.0
387  110.0
388  110.0
389  110.0
390  110.0
391  110.0
392  110.0
393  110.0
394  110.0
395  110.0
396  110.0
397  110.0
398  110.0
399  110.0
400  110.0
401  110.0
402  110.0
403  110.0
404  110.0
405  110.0
406  110.0
407  110.0
408  110.0
409  110.0
410  110.0
411  110.0
412  110.0
413  110.0
414  110.0
415  110.0
416  110.0
417  110.0
418  110.0
419  110.0
420  110.0
421  110.0
422  110.0
423  110.0
424  110.0
425  110.0
426  110.0
427  110.0
428  110.0
429  110.0
430  110.0
431  110.0
432  110.0
433  110.0
434  110.0
435  110.0
436  110.0
437  110.0
438  110.0
439  110.0
440  110.0
441  110.0
442  110.0
443  110.0
444  110.0
445  110.0
446  110.0
447  110.0
448  110.0
449  110.0
450  110.0
451  110.0
452  110.0
453  110.0
454  110.0
455  110.0
456  110.0
457  110.0
458  110.0
459  110.0
460  110.0
461  110.0
462  110.0
463  110.0
464  110.0
465  110.0
466  110.0
467  110.0
468  110.0
469  110.0
470  110.0
471  110.0
472  110.0
473  110.0
474  110.0
475  110.0
476  110.0
477  110.0
478  110.0
479  110.0
480  110.0
481  110.0
482  110.0
483  110.0
484  110.0
485  110.0
486  110.0
487  110.0
488  110.0
489  110.0
490  110.0
491  110.0
492  110.0
493  110.0
494  110.0
495  110.0
496  110.0
497  110.0
498  110.0
499  110.0
500  110.0
501  110.0
502  110.0
503  110.0
504  110.0
505  110.0
506  110.0
507  110.0
508  110.0
509  110.0
510  110.0
511  110.0
512  110.0
513  110.0
514  110.0
515  110.0
516  110.0
517  110.0
518  110.0
519  110.0
520  110.0
521  110.0
522  110.0
523  110.0
524  110.0
525  110.0
526  110.0
527  110.0
528  110.0
529  110.0
530  110.0
531  110.0
532  110.0
533  110.0
534  110.0
535  110.0
536  110.0
537  110.0
538  110.0
539  110.0
540  110.0
541  110.0
542  110.0
543  110.0
544  110.0
545  110.0
546  110.0
547  110.0
548  110.0
549  110.0
550  110.0
551  110.0
552  110.0
553  110.0
554  110.0
555  110.0
556  110.0
557  110.0
558  110.0
559  110.0
560  110.0
561  110.0
562  110.0
563  110.0
564  110.0
565  110.0
566  110.0
567  110.0
568  110.0
569  110.0
570  110.0
571  110.0
572  110.0
573  110.0
574  110.0
575  110.0
576  110.0
577  110.0
578  110.0
579  110.0
580  110.0
581  110.0
582  110.0
583  110.0
584  110.0
585  110.0
586  110.0
587  110.0
588  110.0
589  110.0
590  110.0
591  110.0
592  110.0
593  110.0
594  110.0
595  110.0
596  110.0

Atoms  # bond  (atom_id mol_id atom_type x y z)

     1  1     1    102.163002    102.135002     -4.463000
     2  1     2     99.877998    105.116997     -4.015000
     3  1     3     96.511002    105.514000     -2.072000
     4  1     4     93.730003    106.917000     -4.303000
     5  1     5     91.997002    109.449997     -1.869000
     6  1     6     88.373001    109.463997     -2.971000
     7  1     7     88.160004    106.351997     -5.212000
     8  1     8     86.719002    103.735001     -2.635000
     9  1     9     83.814003    106.098999     -2.082000
    10  1    10     83.478996    106.563004     -5.949000
    11  1    11     85.329002    109.706001     -6.906000
    12  1    12     88.508003    110.269997     -8.939000
    13  1    13     91.008003    113.125000     -8.111000
    14  1    14     90.115997    114.350998    -11.659000
    15  1    15     86.382004    114.396004    -10.846000
    16  1    16     87.060997    116.666000     -7.797000
    17  1    17     89.523003    118.797997     -9.961000
    18  1    18     86.796997    119.220001    -12.538000
    19  1    19     85.003998    121.547997    -10.186000
    20  1    20     86.274002    125.148003     -9.226000
    21  1    21     88.807999    125.097000     -6.203000
    22  1    22     86.872002    127.654999     -4.377000
    23  1    23     83.432999    125.837997     -4.359000
    24  1    24     83.984001    123.917999     -1.045000
    25  1    25     83.291000    125.320999      2.449000
    26  1    26     86.197998    126.667999      4.556000
    27  1    27     88.528999    125.122002      7.062000
    28  1    28     86.415001    126.671997      9.864000
    29  1    29     83.084999    126.037003      7.936000
    30  1    30     83.345001    122.324997      7.407000
    31  1    31     84.389999    121.987999     11.103000
    32  1    32     81.297997    124.135002     12.071000
    33  1    33     78.918999    122.252998      9.791000
    34  1    34     80.302002    118.820999     11.063000
    35  1    35     79.632004    120.001999     14.641000
    36  1    36     76.099998    121.439003     13.902000
    37  1    37     74.569000    118.642998     11.832000
    38  1    38     76.758003    115.613998     12.716000
    39  1    39     77.492996    115.811996     16.481001
    40  1    40     77.028999    112.262001     17.716000
    41  1    41     78.750000    110.972000     14.587000
    42  1    42     81.932999    112.805000     15.767000
    43  1    43     81.639000    111.056999     19.252001
    44  1    44     80.689003    107.585999     17.940001
    45  1    45     81.834000    104.348999     19.666000
    46  1    46     80.286003    102.668999     16.441999
    47  1    47     81.842003    102.518997     12.986000
    48  1    48     78.564003    102.539001     10.987000
    49  1    49     78.773003    103.306000      7.164000
    50  1    50     82.264000    103.837997      5.482000
    51  1    51     81.624001    107.582001      5.351000
    52  1    52     81.357002    107.860001      9.123000
    53  1    53     84.747002    106.278999      9.780000
    54  1    54     86.473000    108.282997      7.028000
    55  1    55     84.971001    111.482002      8.369000
    56  1    56     86.348000    110.914001     11.852000
    57  1    57     89.791000    110.066002     10.545000
    58  1    58     89.876999    113.196999      8.327000
    59  1    59     89.324997    115.568001     11.264000
    60  1    60     92.130997    113.717003     13.034000
    61  1    61     94.494003    113.969002      9.960000
    62  1    62     94.241997    117.858002     10.039000
    63  1    63     94.637001    117.641998     13.803000
    64  1    64     98.209000    116.445999     13.637000
    65  1    65     98.692001    118.889999     10.680000
    66  1    66     97.554001    121.996002     12.439000
    67  1    67     99.386002    120.889000     15.634000
    68  1    68    102.674004    120.990997     13.397000
    69  1    69    101.538002    124.246002     11.618000
    70  1    70    101.025002    125.900002     15.017000
    71  1    71    104.392998    124.622002     16.325001
    72  1    72    106.254997    125.649002     13.191000
    73  1    73    104.836998    129.279007     13.451000
    74  1    74    106.014000    129.287994     17.125000
    75  1    75    109.570999    128.162994     16.087000
    76  1    76    109.623001    130.906998     13.329000
    77  1    77    110.563004    134.425995     14.423000
    78  1    78    109.008003    136.195007     11.390000
    79  1    79    105.272003    137.337997     11.630000
    80  1    80    104.985001    137.389999      7.816000
    81  1    81    106.136002    133.701004      7.410000
    82  1    82    103.514999    132.669006     10.084000
    83  1    83    100.922997    134.000000      7.697000
    84  1    84    102.596001    132.031998      4.969000
    85  1    85    102.507004    128.712997      6.882000
    86  1    86     98.726997    128.973007      7.806000
    87  1    87     98.135002    130.056000      4.141000
    88  1    88    100.037003    126.956001      2.685000
    89  1    89     98.144997    124.799004      5.179000
    90  1    90     94.776001    126.361000      4.272000
    91  1    91     95.591003    126.336998      0.474000
    92  1    92     98.259003    123.917999     -0.993000
    93  1    93     97.617996    121.091003      1.408000
    94  1    94     94.160004    122.181000      2.955000
    95  1    95     92.343002    122.239998     -0.330000
    96  1    96     92.595001    118.421997     -0.502000
    97  1    97     91.431000    118.393997      3.164000
    98  1    98     88.420998    120.599998      2.242000
    99  1    99     87.602997    118.194000     -0.716000
   100  1   100     87.973000    115.003998      1.415000
   101  1   101     85.703003    116.141998      4.477000
   102  1   102     83.206001    118.044998      2.146000
   103  1   103     82.917000    114.834999      0.086000
   104  1   104     82.237999    112.705002      3.040000
   105  1   105     79.653999    115.162003      4.430000
   106  1   106     77.824997    115.480003      1.088000
   107  1   107     77.807999    111.723000      0.549000
   108  1   108     76.778999    110.981003      4.126000
   109  1   109     73.962997    113.546997      3.967000
   110  1   110     72.551003    112.834999      0.443000
   111  1   111     74.138000    109.533997     -0.795000
   112  1   112     76.866997    109.195000     -3.406000
   113  1   113     75.325996    109.014000     -6.883000
   114  1   114     73.282997    112.254997     -6.795000
   115  1   115     76.419998    113.916000     -5.598000
   116  1   116     78.517998    112.112999     -8.413000
   117  1   117     75.844002    113.316002    -10.974000
   118  1   118     75.870003    116.735001     -9.293000
   119  1   119     79.664001    116.926003     -9.968000
   120  1   120     79.453003    116.549004    -13.782000
   121  1   121     76.402000    118.675003    -13.893000
   122  1   122     77.771004    121.599998    -11.753000
   123  1   123     80.834999    121.152000    -14.084000
   124  1   124     78.871002    121.352997    -17.294001
   125  1   125     76.967003    124.362999    -15.908000
   126  1   126     80.277000    126.164001    -15.000000
   127  1   127     82.011002    125.070000    -18.349001
   128  1   128     78.903999    126.309998    -20.099001
   129  1   129     79.961998    129.863998    -20.771999
   130  1   130     78.740997    132.587006    -18.371000
   131  1   131     76.067001    134.339996    -20.635000
   132  1   132     74.879997    131.160004    -22.305000
   133  1   133     74.164001    129.529007    -18.900000
   134  1   134     70.801003    128.145996    -17.740000
   135  1   135     69.507004    130.537003    -14.972000
   136  1   136     69.556999    128.037003    -12.198000
   137  1   137     72.544998    125.803001    -11.564000
   138  1   138     71.948997    121.891998    -11.242000
   139  1   139     71.987999    120.650002     -7.659000
   140  1   140     71.831001    117.124001     -5.824000
   141  1   141     68.285004    115.646004     -5.105000
   142  1   142     66.892998    116.700996     -1.641000
   143  1   143     63.473000    115.293999     -2.320000
   144  1   144     63.528999    111.815002     -0.550000
   145  1   145     60.945000    110.617996     -2.880000
   146  1   146     59.014000    108.707001     -0.175000
   147  1   147     56.418999    109.688004      2.476000
   148  1   148     58.441002    108.500000      5.539000
   149  1   149     60.983002    110.570999      7.682000
   150  2   150     83.274002    116.652000     20.753000
   151  2   151     86.789001    116.874001     19.410999
   152  2   152     87.765999    113.273003     18.296000
   153  2   153     89.250000    110.477997     20.469000
   154  2   154     91.039001    108.345001     17.837000
   155  2   155     90.319000    104.703003     18.874001
   156  2   156     86.935997    105.197998     20.458000
   157  2   157     85.080002    103.657997     17.472000
   158  2   158     87.624001    100.913002     17.306000
   159  2   159     87.183998     99.664001     20.899000
   160  2   160     90.386002    101.204002     22.386000
   161  2   161     92.119003    104.025002     24.282000
   162  2   162     94.972000    106.517998     23.780001
   163  2   163     95.678001    105.959999     27.455000
   164  2   164     96.835999    102.315002     26.745001
   165  2   165     98.344002    103.087997     23.334999
   166  2   166    100.584000    105.943001     24.545000
   167  2   167    101.833000    103.958000     27.671000
   168  2   168    103.782997    101.613998     25.365999
   169  2   169    107.565002    102.279999     24.566000
   170  2   170    108.606003    103.723000     21.205000
   171  2   171    110.945000    100.681999     20.408001
   172  2   172    108.045998     98.274002     20.830999
   173  2   173    106.480003     99.791000     17.631001
   174  2   174    108.043999     99.070999     14.249000
   175  2   175    109.035004    102.156998     12.092000
   176  2   176    106.532997    103.958000      9.824000
   177  2   177    108.712997    102.507004      7.011000
   178  2   178    107.889999     98.785004      7.925000
   179  2   179    104.096001     99.643997      8.361000
   180  2   180    104.241997    101.249001      4.913000
   181  2   181    106.010002     98.161003      3.576000
   182  2   182    103.435997     95.781998      5.201000
   183  2   183    100.579002     97.820999      3.693000
   184  2   184    102.093002     97.611000      0.171000
   185  2   185    103.176003     93.922997      0.611000
   186  2   186    100.016998     92.113998      2.030000
   187  2   187     97.162003     94.545998      1.537000
   188  2   188     97.862000     96.236000     -1.771000
   189  2   189     94.749001     94.683998     -3.311000
   190  2   190     92.439003     95.938004     -0.600000
   191  2   191     94.105003     99.453003     -0.539000
   192  2   192     93.588997     99.753998     -4.439000
   193  2   193     90.010002     98.290001     -3.924000
   194  2   194     86.872002     99.836998     -5.844000
   195  2   195     84.849998     98.478996     -3.004000
   196  2   196     84.615997     98.851997      0.839000
   197  2   197     86.624001     96.272003      2.962000
   198  2   198     86.841003     97.190002      6.716000
   199  2   199     87.073997    100.278999      8.796000
   200  2   200     90.722000     99.129997      9.512000
   201  2   201     91.532997     99.138000      5.767000
   202  2   202     89.931000    102.601997      5.466000
   203  2   203     91.893997    103.977997      8.493000
   204  2   204     94.918999    102.513000      6.837000
   205  2   205     94.183998    104.447998      3.765000
   206  2   206     93.452003    107.637001      5.739000
   207  2   207     96.511002    107.620003      7.973000
   208  2   208     99.032997    107.132004      5.051000
   209  2   209     97.319000    110.253998      3.366000
   210  2   210     97.741997    111.876999      6.784000
   211  2   211    101.480003    111.139999      6.996000
   212  2   212    102.028999    112.150002      3.443000
   213  2   213    100.735001    115.671997      3.728000
   214  2   214    102.674004    115.844002      7.077000
   215  2   215    105.921997    114.921997      5.351000
   216  2   216    105.294998    117.372002      2.412000
   217  2   217    104.586998    120.237999      4.911000
   218  2   218    107.857002    119.442001      6.918000
   219  2   219    109.744003    119.218002      3.681000
   220  2   220    108.374001    122.431000      2.204000
   221  2   221    109.209000    124.205002      5.559000
   222  2   222    112.625999    122.599998      5.616000
   223  2   223    113.096001    123.730003      2.028000
   224  2   224    112.296997    127.343002      2.968000
   225  2   225    114.801003    127.539001      5.820000
   226  2   226    118.477997    127.772003      5.025000
   227  2   227    119.584000    126.453003      8.394000
   228  2   228    120.336998    122.530998      8.440000
   229  2   229    119.741997    122.406998     12.273000
   230  2   230    116.343002    124.136002     11.972000
   231  2   231    115.383003    121.391998      9.253000
   232  2   232    116.694000    118.666000     11.666000
   233  2   233    114.441002    120.376999     14.352000
   234  2   234    111.268997    120.272003     12.162000
   235  2   235    111.943001    116.834999     10.877000
   236  2   236    112.719002    115.307999     14.271000
   237  2   237    109.373001    116.793999     15.562000
   238  2   238    107.639999    114.912003     12.665000
   239  2   239    109.418999    111.533997     13.449000
   240  2   240    108.967003    111.889999     17.306999
   241  2   241    106.242996    114.242996     18.712000
   242  2   242    103.886002    113.649002     15.749000
   243  2   243    105.349998    110.357002     14.445000
   244  2   244    105.091003    108.292999     17.552000
   245  2   245    101.287003    108.711998     17.166000
   246  2   246    101.446999    107.420998     13.527000
   247  2   247    103.436996    104.372002     14.618000
   248  2   248    100.610001    103.628998     17.171000
   249  2   249     97.894997    104.374001     14.671000
   250  2   250     99.265999    102.495003     11.627000
   251  2   251    100.388000     99.535004     13.895000
   252  2   252     96.936996     99.239998     15.583000
   253  2   253     95.130997     99.098999     12.107000
   254  2   254     97.760002     96.922997     10.440000
   255  2   255     97.825996     94.541000     13.252000
   256  2   256     94.014000     94.190002     13.447000
   257  2   257     94.013000     93.415001      9.717000
   258  2   258     96.830002     90.737000     10.246000
   259  2   259     95.661003     89.279999     13.506000
   260  2   260     92.050003     90.356003     14.279000
   261  2   261     91.179001     93.297997     16.669001
   262  2   262     90.266998     91.217003     19.822001
   263  2   263     93.416000     89.033997     19.520000
   264  2   264     95.625000     92.240997     19.422001
   265  2   265     94.056999     94.004997     22.405001
   266  2   266     94.289001     90.866997     24.638000
   267  2   267     97.970001     90.815002     23.622999
   268  2   268     98.230003     94.443001     24.666000
   269  2   269     96.315002     93.820000     27.972000
   270  2   270     98.675003     90.924004     28.898001
   271  2   271    101.696999     93.193001     27.884001
   272  2   272    100.347000     95.985001     30.113001
   273  2   273    100.271004     94.089996     33.480999
   274  2   274    104.002998     93.154999     32.801998
   275  2   275    105.063004     96.848999     32.306000
   276  2   276    102.914001     97.797997     35.348000
   277  2   277    104.803001     95.025002     37.334000
   278  2   278    108.192001     96.457001     38.676998
   279  2   279    111.220001     95.011002     36.794998
   280  2   280    112.496002     92.461998     39.366001
   281  2   281    109.042999     91.182999     40.067001
   282  2   282    108.336998     90.056000     36.518002
   283  2   283    109.725998     87.424004     33.921001
   284  2   284    112.746002     88.634003     31.740999
   285  2   285    111.084000     88.042999     28.289000
   286  2   286    108.388000     90.489998     27.023001
   287  2   287    105.179001     88.942001     25.756001
   288  2   288    105.626999     87.829002     22.079000
   289  2   289    103.148003     88.571999     19.240000
   290  2   290    100.469002     85.898003     18.577000
   291  2   291    100.320000     83.478996     15.569000
   292  2   292     98.542999     84.246002     12.289000
   293  2   293     94.853996     83.260002     11.902000
   294  2   294     94.212997     80.067001      9.780000
   295  2   295     94.278000     80.955002      6.071000
   296  2   296     96.135002     83.958000      4.950000
   297  2   297     96.675003     83.276001      1.221000
   298  2   298     94.596001     80.808998     -0.970000
   299  3   299    100.313004     98.028999    -20.237000
   300  3   300    102.676003     95.074997    -19.834999
   301  3   301    102.344002     92.370003    -17.105000
   302  3   302    104.748001     92.301003    -14.135000
   303  3   303    107.714996     89.866997    -14.205000
   304  3   304    106.379997     86.814003    -12.333000
   305  3   305    102.470001     87.073997    -11.967000
   306  3   306    101.582001     84.082001    -14.133000
   307  3   307    103.311996     82.002998    -11.452000
   308  3   308    101.384003     83.624001     -8.688000
   309  3   309    103.774002     86.147003     -7.421000
   310  3   310    103.856003     89.962997     -7.290000
   311  3   311    107.259003     91.556000     -6.969000
   312  3   312    106.072998     93.528999     -3.979000
   313  3   313    105.617996     90.254997     -1.963000
   314  3   314    109.156998     89.121002     -3.124000
   315  3   315    110.614998     92.504997     -1.970000
   316  3   316    108.542000     92.674004      1.226000
   317  3   317    111.695000     90.991997      2.478000
   318  3   318    114.992996     92.975998      2.283000
   319  3   319    117.494003     92.695999     -0.622000
   320  3   320    119.849998     90.364998      1.322000
   321  3   321    117.246002     87.671997      1.968000
   322  3   322    117.954002     85.407997     -1.099000
   323  3   323    121.039001     83.279999     -1.646000
   324  3   324    123.545998     84.616997     -4.225000
   325  3   325    123.176003     83.709999     -7.996000
   326  3   326    126.053001     81.179001     -7.596000
   327  3   327    123.962997     79.350998     -4.910000
   328  3   328    120.691002     79.102997     -6.830000
   329  3   329    122.441002     77.837997     -9.973000
   330  3   330    123.981003     75.196999     -7.758000
   331  3   331    120.360001     74.494003     -6.251000
   332  3   332    118.876999     74.072998     -9.730000
   333  3   333    121.484001     71.453003    -10.749000
   334  3   334    121.428001     69.778000     -7.452000
   335  3   335    117.818001     68.827003     -7.164000
   336  3   336    116.405998     69.174004    -10.743000
   337  3   337    119.213997     68.403999    -13.331000
   338  3   338    117.806999     65.473000    -15.293000
   339  3   339    114.347000     67.114998    -15.456000
   340  3   340    115.901001     70.529999    -16.573000
   341  3   341    117.888000     68.723999    -19.304001
   342  3   342    114.943001     66.293999    -20.212999
   343  3   343    113.070999     66.970001    -23.577000
   344  3   344    109.860001     66.558998    -21.563999
   345  3   345    107.616997     69.681000    -20.783001
   346  3   346    107.575996     69.111000    -17.007999
   347  3   347    105.991997     72.037003    -14.944000
   348  3   348    105.914001     75.635002    -16.371000
   349  3   349    108.321999     76.469002    -13.493000
   350  3   350    110.885002     74.259003    -15.250000
   351  3   351    110.205002     76.049004    -18.594999
   352  3   352    110.809998     79.370003    -16.948999
   353  3   353    114.032997     78.128998    -15.121000
   354  3   354    115.294998     76.512001    -18.440001
   355  3   355    114.975998     79.912003    -19.982000
   356  3   356    116.322998     81.781998    -16.955000
   357  3   357    119.628998     79.889000    -16.757999
   358  3   358    120.277000     80.681999    -20.521999
   359  3   359    119.295998     84.351997    -19.921000
   360  3   360    121.905998     84.490997    -17.058001
   361  3   361    124.374001     83.235001    -19.642000
   362  3   362    123.766998     86.065002    -22.101999
   363  3   363    123.969002     88.836998    -19.427000
   364  3   364    127.389000     87.377998    -18.341999
   365  3   365    128.488998     87.105003    -21.974001
   366  3   366    127.360001     90.616997    -22.746000
   367  3   367    129.076996     91.858002    -19.518000
   368  3   368    132.414001     90.264000    -20.566000
   369  3   369    132.264999     91.566002    -24.158001
   370  3   370    132.100006     95.071999    -22.708000
   371  3   371    135.320007     94.500999    -20.878000
   372  3   372    137.231003     93.265999    -23.940001
   373  3   373    135.761002     95.666000    -26.545000
   374  3   374    136.098999     99.083000    -24.565001
   375  3   375    139.578003    100.345001    -23.864000
   376  3   376    138.557999    103.776001    -22.561001
   377  3   377    136.897995    103.134003    -19.073000
   378  3   378    139.311005    103.134003    -16.243000
   379  3   379    137.382996    100.190002    -14.763000
   380  3   380    137.003006     96.996002    -16.726999
   381  3   381    134.985992     95.415001    -13.897000
   382  3   382    132.195007     97.958000    -13.566000
   383  3   383    129.542007     96.208000    -15.707000
   384  3   384    130.468002     92.689003    -14.385000
   385  3   385    129.957001     94.153999    -10.775000
   386  3   386    126.681999     95.775002    -11.880000
   387  3   387    125.531998     92.353996    -13.180000
   388  3   388    126.473000     90.332001    -10.016000
   389  3   389    124.894997     92.901001     -7.724000
   390  3   390    122.311996     95.147003     -9.360000
   391  3   391    121.125000     92.862999    -12.328000
   392  3   392    121.556000     90.010002     -9.888000
   393  3   393    118.956001     90.878998     -7.249000
   394  3   394    116.040001     90.259003     -9.554000
   395  3   395    117.714996     87.055000    -10.793000
   396  3   396    117.834999     85.926003     -7.124000
   397  3   397    113.991997     86.498001     -6.784000
   398  3   398    113.323997     84.526001    -10.022000
   399  3   399    115.610001     81.511002     -9.465000
   400  3   400    114.764000     81.297997     -5.641000
   401  3   401    111.032997     81.505997     -6.305000
   402  3   402    110.694000     79.130997     -9.269000
   403  3   403    112.679001     76.533997     -7.431000
   404  3   404    110.660004     77.115997     -4.284000
   405  3   405    107.261002     76.754997     -5.920000
   406  3   406    108.309998     73.542999     -7.625000
   407  3   407    109.925003     72.233002     -4.325000
   408  3   408    107.653000     73.412003     -1.523000
   409  3   409    104.272003     74.232002     -3.222000
   410  3   410    102.915001     77.575996     -4.373000
   411  3   411    100.542000     78.320999     -1.375000
   412  3   412    103.369003     77.438004      1.058000
   413  3   413    105.763000     79.803001     -0.551000
   414  3   414    103.279999     82.678001     -0.504000
   415  3   415    102.633003     81.750000      3.158000
   416  3   416    106.254997     81.889000      4.197000
   417  3   417    106.588997     85.347000      2.383000
   418  3   418    103.931000     87.147003      4.389000
   419  3   419    104.551003     85.315002      7.732000
   420  3   420    108.337997     85.259003      7.953000
   421  3   421    108.477997     88.814003      6.548000
   422  3   422    106.525002     89.945999      9.708000
   423  3   423    109.102997     88.172997     11.868000
   424  3   424    112.066002     89.894997      9.989000
   425  3   425    110.321999     93.366997     10.297000
   426  3   426    109.586998     92.711998     14.001000
   427  3   427    112.269997     93.750000     16.681000
   428  3   428    114.281998     90.707001     18.202999
   429  3   429    113.241997     91.245003     22.030001
   430  3   430    109.528000     91.115997     20.830999
   431  3   431    109.553001     88.018997     18.488001
   432  3   432    110.154999     84.532997     19.893999
   433  3   433    113.043999     82.450996     18.552000
   434  3   434    110.599998     80.042000     16.782000
   435  3   435    109.841003     80.889000     13.095000
   436  3   436    107.948997     79.739998     10.010000
   437  3   437    110.241997     77.258003      8.104000
   438  3   438    110.587997     75.945999      4.519000
   439  3   439    110.630997     72.012001      4.772000
   440  3   440    109.152000     68.809998      3.094000
   441  3   441    109.811996     66.647003      6.178000
   442  3   442    106.119003     67.417000      7.507000
   443  3   443    104.779999     65.457001      4.464000
   444  3   444    107.399002     62.598999      4.992000
   445  3   445    107.858002     62.012001      8.883000
   446  3   446    106.655998     63.099998     12.330000
   447  3   447    107.352997     66.820000     13.512000
   448  4   448    124.384003     73.773003    -17.594000
   449  4   449    123.867996     75.213997    -21.157000
   450  4   450    120.642998     73.514999    -22.091000
   451  4   451    119.584000     72.467003    -25.652000
   452  4   452    116.908997     75.195000    -26.174999
   453  4   453    113.990997     73.748001    -28.188999
   454  4   454    114.185997     70.124001    -26.809000
   455  4   455    111.290001     70.736000    -24.292999
   456  4   456    109.115997     72.176003    -27.153000
   457  4   457    110.190002     69.198997    -29.245001
   458  4   458    112.819000     70.429001    -31.632000
   459  4   459    116.583000     70.491997    -32.154999
   460  4   460    119.119003     73.223000    -33.146999
   461  4   461    119.694000     71.286003    -36.339001
   462  4   462    116.199997     71.928001    -37.521000
   463  4   463    116.783997     75.776001    -37.144001
   464  4   464    120.249001     75.393997    -38.637001
   465  4   465    118.749001     73.792999    -41.695999
   466  4   466    116.945999     77.125000    -42.544998
   467  4   467    118.904999     79.950996    -44.243999
   468  4   468    120.372002     82.136002    -41.388000
   469  4   469    118.865997     85.293999    -42.810001
   470  4   470    115.408997     83.561996    -43.148998
   471  4   471    114.019997     84.536003    -39.703999
   472  4   472    112.413002     88.155998    -39.279999
   473  4   473    113.842003     90.910004    -37.013000
   474  4   474    113.441002     90.612999    -33.243000
   475  4   475    111.818001     94.083000    -33.438000
   476  4   476    109.294998     92.773003    -36.015999
   477  4   477    108.504997     89.718002    -33.770000
   478  4   478    107.948997     91.960999    -30.702999
   479  4   479    105.500999     93.779999    -32.877998
   480  4   480    103.983002     90.415001    -34.243000
   481  4   481    103.332001     89.366997    -30.681000
   482  4   482    101.694000     92.620003    -29.945000
   483  4   483     99.444000     92.428001    -32.937000
   484  4   484     98.416000     88.749001    -32.504002
   485  4   485     98.612999     87.822998    -28.834000
   486  4   486     98.377998     91.082001    -26.910999
   487  4   487     96.213997     89.434998    -24.146000
   488  4   488     99.075996     87.052002    -23.201000
   489  4   489    101.399002     90.113998    -23.257000
   490  4   490     99.325996     92.507004    -21.034000
   491  4   491     97.734001     89.820000    -18.782000
   492  4   492     99.177002     86.638000    -17.142000
   493  4   493     96.710999     84.761002    -19.684000
   494  4   494     97.283997     80.957001    -20.047001
   495  4   495     99.949997     78.667999    -18.483000
   496  4   496     99.938004     76.463997    -21.677000
   497  4   497    103.567001     75.764999    -22.974001
   498  4   498    103.981003     78.422997    -25.497999
   499  4   499    102.148003     81.310997    -23.688999
   500  4   500    104.237999     80.813004    -20.738001
   501  4   501    107.400002     80.447998    -22.913000
   502  4   502    106.700996     83.726997    -24.990000
   503  4   503    106.702003     85.994003    -21.868000
   504  4   504    109.930000     84.440002    -20.677000
   505  4   505    111.536003     84.991997    -24.080999
   506  4   506    110.498001     88.699997    -24.080000
   507  4   507    111.870003     89.044998    -20.597000
   508  4   508    115.214996     87.475998    -21.709000
   509  4   509    115.461998     90.000999    -24.462000
   510  4   510    114.202003     92.860001    -22.108000
   511  4   511    116.944000     92.253998    -19.555000
   512  4   512    119.542999     92.203003    -22.441000
   513  4   513    118.097000     95.536003    -23.688999
   514  4   514    117.994003     96.988998    -20.108999
   515  4   515    121.674004     96.192001    -19.480000
   516  4   516    122.781998     97.154999    -23.134001
   517  4   517    120.834000    100.480003    -22.804001
   518  4   518    122.433998    100.751999    -19.306999
   519  4   519    126.026001    100.428001    -20.761999
   520  4   520    124.606003    102.668999    -23.402000
   521  4   521    123.546997    105.447998    -21.105000
   522  4   522    125.986000    105.119003    -18.211000
   523  4   523    129.285995    104.889999    -19.966999
   524  4   524    130.371002    108.278999    -21.708000
   525  4   525    133.973007    107.366997    -22.236000
   526  4   526    133.332001    105.307999    -25.419001
   527  4   527    133.044998    107.467003    -28.469999
   528  4   528    130.091995    105.527000    -29.879000
   529  4   529    127.455002    104.431000    -27.358000
   530  4   530    125.260002    102.279999    -29.636000
   531  4   531    128.029999     99.498001    -29.910000
   532  4   532    126.666000     97.142998    -27.207001
   533  4   533    123.116997     97.592003    -28.389000
   534  4   534    124.268997     96.940002    -32.007000
   535  4   535    125.961998     93.699997    -30.625000
   536  4   536    122.578003     92.401001    -29.191999
   537  4   537    120.660004     93.125000    -32.431999
   538  4   538    123.403000     91.271004    -34.407001
   539  4   539    125.244003     88.360001    -32.849998
   540  4   540    122.941002     87.623001    -29.920000
   541  4   541    119.795998     88.481003    -31.757000
   542  4   542    120.063004     85.688004    -34.213001
   543  4   543    118.665001     83.214996    -31.528000
   544  4   544    115.839996     85.612999    -30.474001
   545  4   545    114.671997     85.688004    -34.091000
   546  4   546    114.681000     81.867996    -34.011002
   547  4   547    113.074997     81.815002    -30.590000
   548  4   548    110.333000     84.459999    -30.788000
   549  4   549    109.166000     83.314003    -34.254002
   550  4   550    108.793999     79.781998    -33.130001
   551  4   551    106.675003     80.677002    -30.165001
   552  4   552    104.624001     83.108002    -32.179001
   553  4   553    104.128998     80.550003    -34.953999
   554  4   554    103.374001     77.676003    -32.487999
   555  4   555    100.399002     79.834999    -31.115999
   556  4   556     99.427002     80.568001    -34.707001
   557  4   557     99.692001     77.197998    -36.626999
   558  4   558    100.478996     74.679001    -33.724998
   559  4   559    103.973999     73.377998    -33.448002
   560  4   560    103.582001     70.196999    -35.652000
   561  4   561    102.689003     72.133003    -38.904999
   562  4   562    105.570999     74.559998    -38.140999
   563  4   563    108.154999     71.682999    -37.674000
   564  4   564    106.738998     70.095001    -40.935001
   565  4   565    107.139999     73.607002    -42.491001
   566  4   566    110.710999     74.167999    -41.188000
   567  4   567    111.976997     70.834000    -42.374001
   568  4   568    110.264000     70.878998    -45.736000
   569  4   569    111.988998     74.147003    -46.375000
   570  4   570    115.557999     73.067001    -45.709000
   571  4   571    115.358002     70.495003    -48.424000
   572  4   572    113.950996     73.092003    -50.990002
   573  4   573    116.762001     75.448997    -50.671001
   574  4   574    119.387001     72.586998    -50.708000
   575  4   575    117.851997     71.226997    -53.992001
   576  4   576    119.316002     73.269997    -56.911999
   577  4   577    117.040001     76.042999    -58.519001
   578  4   578    116.143997     73.807999    -61.479000
   579  4   579    115.292999     70.702003    -59.648998
   580  4   580    113.197998     72.396004    -56.812000
   581  4   581    109.504997     73.080002    -57.702000
   582  4   582    109.511002     76.732002    -58.578999
   583  4   583    107.342003     78.225998    -55.844002
   584  4   584    108.676003     77.980003    -52.250999
   585  4   585    106.963997     76.027000    -49.335999
   586  4   586    104.752998     78.539001    -47.493000
   587  4   587    102.820999     78.403000    -44.298000
   588  4   588     99.735001     80.667999    -44.228001
   589  4   589     96.591003     78.679001    -43.752998
   590  4   590     95.165001     79.582001    -40.258999
   591  4   591     94.028999     76.158997    -38.700001
   592  4   592     90.279999     76.633003    -38.453999
   593  4   593     89.925003     78.338997    -42.050999
   594  4   594     87.721001     76.581001    -44.585999
   595  4   595     89.767998     77.717003    -47.610001
   596  4   596     92.600998     75.408997    -48.691002

Bonds

       1       1     124     127
       2       2     124     128
       3       3     123     124
       4       4     124     126
       5       5     121     124
       6       6     122     124
       7       7     120     124
       8       8     132     134
       9       9     133     134
      10      10     134     135
      11      11     134     136
      12      12     134     137
      13      13     125     133
      14      14     132     133
      15      15     125     127
      16      16     125     128
      17      17     128     132
      18      18     129     132
      19      19     128     133
      20      20     129     133
      21      21     131     132
      22      22     131     133
      23      23     125     137
      24      24     130     132
      25      25     130     133
      26      26     125     126
      27      27     124     125
      28      28     133     135
      29      29     121     125
      30      30     122     125
      31      31     125     138
      32      32     123     125
      33      33     127     128
      34      34     127     129
      35      35     128     129
      36      36     128     130
      37      37     129     130
      38      38     126     127
      39      39     126     128
      40      40     126     129
      41      41     123     127
      42      42     130     131
      43      43     129     131
      44      44     116     117
      45      45     117     120
      46      46     117     118
      47      47     117     121
      48      48     114     117
      49      49     115     117
      50      50     117     119
      51      51     113     117
      52      52     116     120
      53      53     116     119
      54      54     119     120
      55      55     120     123
      56      56     114     116
      57      57     115     116
      58      58     112     116
      59      59     113     116
      60      60      12      13
      61      61      12      14
      62      62      12      15
      63      63      13      14
      64      64      13      15
      65      65      14      15
      66      66      12      16
      67      67      13      16
      68      68      13      17
      69      69      14      16
      70      70      14      17
      71      71      14      18
      72      72      15      16
      73      73      15      17
      74      74      15      18
      75      75       6      12
      76      76       6      13
      77      77      11      12
      78      78      11      13
      79      79      11      15
      80      80       7      12
      81      81      10      12
      82      82     118     121
      83      83     118     122
      84      84     118     138
      85      85     121     122
      86      86     121     138
      87      87     122     138
      88      88     118     119
      89      89     119     121
      90      90     121     123
      91      91     119     122
      92      92     122     123
      93      93     122     137
      94      94     137     138
      95      95     118     139
      96      96     118     140
      97      97     122     139
      98      98     138     139
      99      99     138     140
     100     100     122     126
     101     101     116     118
     102     102     118     120
     103     103     120     121
     104     104     120     122
     105     105     114     118
     106     106     115     118
     107     107      19     119
     108     108      19     123
     109     109     119     123
     110     110      16      19
     111     111      17      19
     112     112      18      19
     113     113      18     123
     114     114     123     126
     115     115      19      20
     116     116      15     119
     117     117      19      21
     118     118     115     119
     119     119      16      17
     120     120      16      18
     121     121      17      18
     122     122      17      20
     123     123      18      20
     124     124      16      99
     125     125      11      16
     126     126     135     136
     127     127     135     137
     128     128     136     137
     129     129     136     138
     130     130     137     139
     131     131      20      21
     132     132      20      22
     133     133      20      23
     134     134     295     298
     135     135     296     298
     136     136     297     298
     137     137     193     195
     138     138     194     195
     139     139     195     196
     140     140       8     195
     141     141     195     197
     142     142     190     193
     143     143     193     194
     144     144     188     190
     145     145     189     190
     146     146     190     191
     147     147     190     192
     148     148     189     193
     149     149     191     193
     150     150     192     193
     151     151     192     194
     152     152       8     193
     153     153       7     194
     154     154       8     194
     155     155     190     197
     156     156     190     201
     157     157     193     196
     158     158     194     196
     159     159     187     190
     160     160     188     189
     161     161     188     191
     162     162     188     192
     163     163     189     191
     164     164     189     192
     165     165     191     192
     166     166       3     191
     167     167       3     192
     168     168       4     192
     169     169     183     188
     170     170     184     188
     171     171     191     205
     172     172     191     201
     173     173     186     188
     174     174     187     188
     175     175     187     189
     176     176     187     191
     177     177     185     188
     178     178     112     113
     179     179     111     112
     180     180     112     114
     181     181     112     115
     182     182     111     113
     183     183     113     114
     184     184     113     115
     185     185     107     112
     186     186     110     112
     187     187       9      10
     188     188       7       9
     189     189       8       9
     190     190       7      10
     191     191       8      10
     192     192       9      11
     193     193      10      11
     194     194       6       9
     195     195       6      10
     196     196       7       8
     197     197       4       7
     198      71       5       7
     199     198       6       7
     200     199       6       8
     201     200       8     196
     202     201       2       3
     203     202       2       4
     204     203       3       4
     205     204       1       2
     206     205       1       3
     207     206       3     205
     208     207       3     209
     209     208       1     184
     210     209     143     144
     211     210     143     145
     212     211     144     145
     213     212     141     143
     214     213     145     147
     215     214     142     143
     216     215     142     144
     217     216     144     146
     218     217     145     146
     219     218     114     141
     220     219     141     142
     221     220     139     141
     222     221     140     141
     223     222     111     114
     224     223     111     115
     225     224     114     115
     226     225     114     140
     227     226     115     140
     228     227     106     111
     229     228     107     111
     230     229     108     111
     231     230     109     111
     232     231     110     111
     233     232     110     114
     234     233     106     115
     235     234     107     115
     236     235     110     115
     237     236       6      11
     238      59       7      11
     239     237       5       6
     240     238       6     100
     241     239       3       5
     242     240       4       5
     243     241       4       6
     244     242     140     142
     245     243     110     142
     246     244     139     140
     247     245      96      99
     248      37      95      96
     249     246      96      97
     250     247      96      98
     251     248      95      99
     252     249      97      99
     253     250      98      99
     254     251      93      96
     255     252      94      96
     256     253      99     102
     257     254      96     100
     258     255      99     100
     259     256      99     101
     260     257      99     103
     261     258      23      24
     262     259      21      23
     263     260      22      23
     264     261      21      24
     265     262      22      24
     266     263      23      25
     267     264      24      25
     268     265      24      26
     269     266      24      99
     270     267      24     102
     271     268      24      98
     272     269      21      22
     273     270      88      92
     274     271      89      92
     275     272      90      92
     276     273      91      92
     277     274      92      93
     278     275      92      94
     279     276      92      95
     280     277     295     296
     281     278     295     297
     282     279     296     297
     283     280     293     295
     284     281     294     295
     285     282     293     296
     286     283     294     296
     287     284     186     187
     288     285     185     186
     289     286     185     187
     290     287     182     186
     291     288     183     186
     292     289     184     186
     293     290     183     187
     294     291     184     187
     295     292     181     185
     296     293     182     185
     297     294     183     185
     298     295     184     185
     299     296     196     197
     300     297     196     198
     301     298      50     196
     302     299     197     198
     303     300     197     201
     304     301     198     201
     305     302     198     202
     306     264     201     202
     307     303     197     199
     308     304     198     199
     309     305     198     200
     310     306     199     201
     311     307     200     201
     312     308     201     204
     313     309     201     205
     314     310     201     253
     315     311     201     203
     316     312     180     181
     317     313     180     182
     318     314     180     183
     319     315     180     184
     320     316     181     182
     321     317     181     183
     322     318     181     184
     323     319     182     183
     324     320     182     184
     325     321     183     184
     326     322     179     180
     327     323     179     181
     328     324     179     182
     329     325     179     183
     330     326     178     180
     331     327     178     181
     332     328     178     182
     333     329     176     180
     334     330     177     180
     335     331     177     181
     336     332     146     148
     337     333     146     147
     338     334     147     148
     339     335     148     149
     340     336      50      51
     341     337      51     104
     342     338      48      50
     343     339      49      50
     344     340      50      52
     345     341      50      53
     346     342      49      51
     347     343      51      52
     348     344      51      53
     349     345      50      54
     350     346      51      54
     351     347      51      55
     352     348      50     199
     353     349     202     204
     354     350     202     205
     355     351     202     206
     356     352      54     202
     357     353     202     203
     358     354     199     202
     359     355     200     202
     360     356     204     205
     361     357     204     206
     362     358     204     208
     363     359     205     206
     364     360     205     208
     365     361     206     208
     366     362     205     209
     367     363     206     209
     368     364     206     210
     369     365     208     209
     370     366     208     210
     371     367     204     207
     372     368     204     250
     373     369     205     207
     374     237     206     207
     375     370     207     208
     376     371     208     212
     377     372     203     204
     378     373     203     205
     379     374      54     206
     380     375     203     206
     381     376     204     253
     382     377     204     254
     383     378     208     211
     384     379      57     206
     385     380      58     206
     386     381     200     204
     387     382     147     149
     388     383     106     107
     389     384     106     108
     390     385     106     109
     391     386     106     110
     392     387     107     108
     393     388     107     109
     394     389     107     110
     395     390     108     109
     396     391     108     110
     397     392     109     110
     398     393     103     106
     399     394     104     106
     400     395     105     106
     401     396     103     107
     402     397     104     107
     403     398     105     107
     404     399     104     108
     405     400     105     108
     406     401     105     109
     407     402     102     106
     408     403      51     108
     409     404     103     104
     410     405     103     105
     411     406     104     105
     412     407     100     103
     413     408     101     103
     414     409     100     104
     415     410     101     104
     416     411     101     105
     417     412     102     103
     418     413     102     104
     419     414     102     105
     420     415      55     104
     421     416     100     101
     422     417      97     100
     423     418      98     100
     424     419      97     101
     425     420      98     101
     426     421      58     101
     427     422      55     101
     428     423      30     101
     429     424     209     210
     430     425     209     212
     431     426     209     213
     432     427     210     212
     433     428     210     213
     434     429      61     210
     435     430     209     211
     436     431     210     211
     437     432     210     214
     438     433     207     209
     439     434     207     210
     440     435     212     213
     441     436     212     215
     442     437     213     215
     443     438     212     216
     444     439     213     216
     445     440     213     217
     446     441     215     216
     447     442     215     217
     448     443     211     212
     449     444     212     214
     450     445     211     213
     451     446     213     214
     452     447     211     215
     453     448     214     215
     454     449     215     219
     455     450     215     218
     456     451      98     102
     457     452      25     102
     458     453      30     102
     459     454     100     102
     460     119     101     102
     461     455      95      97
     462     456      95      98
     463     457      97      98
     464     458      93      95
     465     459      94      95
     466     460      93      97
     467     461      94      97
     468     462      94      98
     469     463      26      98
     470     464      90      95
     471     465      91      95
     472     466      27      98
     473     467      93      94
     474     468      88      93
     475     469      89      93
     476     470      90      93
     477     471      91      93
     478     472      89      94
     479     473      90      94
     480     474      91      94
     481     475      93     213
     482     476     216     217
     483     477     216     219
     484     478     216     220
     485     479     217     219
     486     480     217     220
     487     481     217     221
     488     482     216     218
     489     483     217     218
     490     484     214     216
     491     485     214     217
     492     486     219     220
     493     487     219     222
     494     488     219     223
     495     489     220     222
     496     490     220     223
     497     491     222     223
     498     492     219     221
     499     493     220     221
     500     494     220     224
     501     495     221     222
     502     496     222     224
     503     497     222     225
     504     498     221     223
     505     499     223     224
     506     500     223     225
     507     501     218     219
     508     502     218     220
     509     503     218     222
     510     504     222     234
     511     505     222     231
     512     506      25      26
     513     507      25      29
     514     508      25      27
     515     509      25      98
     516     510      25      30
     517     511      26      27
     518     512      26      28
     519     513      26      29
     520     514      26      30
     521     515      87      88
     522     516      87      89
     523     517      87      90
     524     518      87      91
     525     519      88      89
     526     520      88      90
     527     521      88      91
     528     522      89      90
     529     523      89      91
     530     524      90      91
     531     525      85      87
     532     526      85      88
     533     527      85      89
     534     528      86      87
     535     529      86      88
     536     530      86      89
     537     531      86      90
     538     532      84      87
     539     533      84      88
     540     534      69      89
     541     535      27      90
     542     536      83      87
     543     537      84      85
     544     538      69      85
     545     539      73      85
     546     540      81      85
     547     541      82      85
     548     542      83      85
     549     543      85      86
     550     544     221     224
     551     545     221     225
     552     546     224     225
     553     547     224     226
     554     548     225     226
     555     549     225     227
     556     550     225     230
     557     551     218     221
     558     552     225     231
     559     553     226     227
     560     554     226     228
     561     555      80      84
     562     556      81      84
     563     557      82      84
     564     558      83      84
     565     559      84      86
     566     560     292     293
     567     561     292     294
     568     562     293     294
     569     563     258     292
     570     564     259     292
     571     565     259     293
     572     566     290     292
     573     567     291     292
     574     568     291     293
     575     569     255     256
     576     570     255     257
     577     571     255     258
     578     572     255     259
     579     573     256     257
     580     574     256     258
     581     575     256     259
     582     576     257     258
     583     577     257     259
     584     578     258     259
     585     579     253     255
     586     580     254     255
     587     581     253     256
     588     582     254     256
     589     583     253     257
     590     584     254     257
     591     585     254     258
     592     586     255     264
     593     587     256     264
     594     588     259     263
     595     589     259     264
     596     590     251     255
     597     591     252     255
     598     592     252     256
     599     593     255     260
     600     594     256     260
     601     595     256     261
     602     596     257     260
     603     597     258     260
     604     598     259     260
     605     599     259     261
     606     600     199     200
     607     601     200     253
     608     602     199     203
     609     603     200     203
     610     604     200     256
     611     605     200     257
     612     606     253     254
     613     607     251     253
     614     608     179     254
     615     609     251     254
     616     610     250     253
     617     611     250     254
     618     612     252     253
     619     613     252     254
     620     614     249     253
     621     615     179     251
     622     616     178     179
     623     617     176     179
     624     618     173     251
     625     619     175     179
     626     620     177     179
     627     621     174     179
     628     622     247     251
     629     623     248     251
     630     624     251     252
     631     625     249     251
     632     626     175     178
     633     627     177     178
     634     628     174     178
     635     629      47      48
     636     630      47      49
     637     631      47      52
     638     632      47      53
     639     633      48      49
     640     634      48      52
     641     635      49      52
     642     636      49      53
     643     637      52      53
     644     638      52      54
     645     639      53      54
     646     640      52      55
     647     641      53      55
     648     642      44      47
     649     643      45      47
     650     644      46      47
     651     645      47     157
     652     646      46      48
     653     647      52      56
     654     648      53      56
     655     649      53      57
     656     650      41      52
     657     651      47     199
     658     652      53     199
     659     653      54     203
     660     654     203     207
     661     655      54      56
     662     656      54      57
     663     657      54      58
     664     658      57     203
     665     659     203     253
     666     660     207     250
     667     661     246     250
     668     662      61     207
     669     663     249     250
     670     664     207     211
     671     665     247     250
     672     666     248     250
     673     667     179     250
     674     668     250     251
     675     669     250     252
     676     670     176     246
     677     671     175     176
     678     672     176     177
     679     646     176     247
     680     673     244     246
     681     674     245     246
     682     675     246     247
     683     676     246     248
     684     677     242     246
     685     678     243     246
     686     679     176     178
     687     680     246     249
     688     681     174     176
     689     682     175     177
     690     683     175     247
     691     684     174     175
     692     685     173     175
     693     686      36      38
     694     687      37      38
     695     688      38      39
     696     689      38      40
     697     690      34      38
     698     691      38      41
     699     692      38      42
     700     693      35      38
     701     694      55      56
     702     695      55      57
     703     696      55      58
     704     697      55      59
     705     698      54      55
     706     699      56      57
     707     700      56      58
     708     701      56      59
     709     702      56      60
     710     703      57      58
     711     704      57      59
     712     705      57      60
     713     706      58      59
     714     707      58      60
     715     708      59      60
     716     709      57      61
     717     710      58      61
     718     711      59      61
     719     712      60      61
     720     713      60      64
     721     714      56     152
     722     715      60     152
     723     716      58      62
     724     717      59      62
     725     718      59      63
     726     719      60      62
     727     720      60      63
     728     721      42      56
     729     722      60     154
     730     723      61      64
     731     724      61      62
     732     725      61      63
     733     726      61      65
     734     727      62      64
     735     728      63      64
     736     729      64      65
     737     730      64      66
     738     731      64      68
     739     732      64     242
     740     733      64      67
     741     734     211     214
     742     735     214     218
     743     736     238     239
     744     737     234     238
     745     738     235     238
     746     739     235     239
     747     740     236     238
     748     741     238     240
     749     742     236     239
     750     743     239     240
     751     744     237     238
     752     745     237     239
     753     718     238     241
     754     746     238     242
     755     747     238     243
     756     748     239     241
     757     749     239     242
     758     750     239     243
     759     751     239     244
     760     675      36      37
     761     752      33      36
     762     753      34      36
     763     754      33      37
     764     755      34      37
     765     756      32      36
     766     757      35      36
     767     758      35      37
     768     759      36      39
     769     760      37      39
     770     761      30      31
     771     762      30      33
     772     763      30      34
     773     764      31      33
     774     765      31      34
     775     766      33      34
     776     767      29      30
     777     768      30      32
     778     769      29      31
     779     770      31      32
     780     771      29      33
     781     772      32      33
     782     773      32      34
     783     774      31      35
     784     775      33      35
     785     406      34      35
     786     776      27      30
     787     777      28      30
     788     778      27      31
     789     779      28      31
     790     780      34      39
     791     781      62      63
     792     782      62      65
     793     783      62      66
     794     784      63      65
     795     785      63      66
     796     786      65      66
     797     787      65      68
     798     788      66      68
     799     789      63      67
     800     790      65      67
     801     791      66      67
     802     792      65      69
     803     793      66      69
     804     794      65     214
     805     795      66      70
     806     796      68      69
     807     797      68      72
     808     798      68      70
     809     799      68      71
     810     800      67      68
     811     801     218     234
     812     802     218     235
     813     803     234     235
     814     804     231     234
     815     805     232     234
     816     806     231     235
     817     807     232     235
     818     808     233     234
     819     809     234     237
     820     810     233     235
     821     811     235     237
     822     812     230     234
     823     813     234     236
     824     814     235     236
     825     815     228     229
     826     816     228     231
     827     817     228     232
     828     818     229     231
     829     819     229     232
     830     258     231     232
     831     820     227     228
     832     821     228     230
     833     822     227     229
     834     823     229     230
     835     824     227     231
     836     825     230     231
     837     826     230     232
     838     827     229     233
     839     828     231     233
     840     150     232     233
     841     829     232     236
     842     830      29      32
     843     831      27      29
     844     136      28      29
     845     832      28      32
     846     833      32      35
     847     834      27      28
     848     835      69      86
     849     836      82      86
     850     837      83      86
     851     838      69      72
     852     839      69      73
     853     840      72      73
     854     841      72      76
     855     842      73      76
     856     843      73      82
     857     844      69      70
     858     845      69      71
     859     846      70      72
     860     847      71      72
     861     848      72      74
     862     849      70      73
     863     850      71      73
     864     851      73      74
     865     852      72      75
     866     853      73      75
     867     854      67      69
     868     855      76      78
     869     856      75      76
     870     857      76      77
     871     858      74      76
     872     859     227     230
     873     860     230     233
     874     412      79      80
     875     861      79      81
     876     862      79      82
     877     863      79      83
     878     864      80      81
     879     865      80      82
     880     866      80      83
     881     867      81      82
     882     868      81      83
     883     869      82      83
     884     870      78      79
     885     871      78      80
     886     872      78      81
     887     873      78      82
     888     874      77      79
     889     875      76      82
     890     876      77      78
     891     877     290     291
     892      14     289     290
     893     878     289     291
     894     879     288     290
     895     880     260     261
     896     881     260     262
     897     882     261     262
     898     883     260     263
     899     884     260     264
     900     885     261     263
     901     886     261     264
     902     887     262     263
     903     888     262     264
     904     647     261     265
     905     889     262     265
     906     890     262     266
     907     891     263     264
     908     892     263     265
     909     893     263     266
     910     894     263     267
     911     895     264     265
     912     896     264     266
     913     897     264     267
     914     898     264     268
     915     899     287     289
     916     900     288     289
     917     901     267     289
     918     902     158     159
     919     903     155     158
     920     904     156     158
     921     905     155     159
     922     906     156     159
     923     907     158     160
     924     908     159     160
     925     909     249     252
     926     910     248     252
     927     911     171     173
     928     912     172     173
     929     913     173     174
     930     914     173     247
     931     915     173     248
     932     916     170     173
     933     486     171     172
     934     917     171     174
     935     918     172     174
     936     919     170     171
     937     920     170     172
     938     921     169     171
     939     922     169     172
     940     923     168     172
     941     924      44      45
     942     925      44      46
     943     926      44     157
     944     927      45      46
     945     928      45     157
     946     929      46     157
     947     930      44     156
     948     931      45     156
     949     932     155     157
     950     933     156     157
     951     934      41      44
     952     935      42      44
     953     936      43      44
     954     937      43      45
     955     938      45     158
     956     939      45     159
     957     940     157     158
     958     941     157     159
     959     942     154     155
     960     943     154     156
     961     944     155     156
     962     945     152     154
     963     946     153     154
     964     947     153     155
     965     948     153     156
     966     949     155     161
     967     950     156     161
     968     951     155     162
     969     952     155     160
     970     953     156     160
     971     954     245     249
     972     955     247     249
     973     956     248     249
     974     598     244     245
     975     957     244     247
     976     958     244     248
     977     959     245     247
     978     960     245     248
     979     815     247     248
     980     961     170     244
     981     962     241     244
     982     963     242     244
     983     964     243     244
     984     965     242     245
     985     966     243     245
     986     967     243     247
     987     968     240     244
     988     969     174     247
     989     970     165     248
     990     971     169     170
     991     972     168     170
     992     973      39      40
     993     974      39      41
     994     975      39      42
     995     223      39      43
     996     976      40      41
     997     977      40      42
     998     978      40      43
     999     979      35      39
    1000     980      39     150
    1001     981      40      44
    1002     851      41      42
    1003     982      41      43
    1004     983      42      43
    1005     984      42     152
    1006     985      43     152
    1007     986      42     150
    1008     987      43     150
    1009     988     152     153
    1010     989     151     152
    1011     990     151     153
    1012     991     241     242
    1013     992     241     243
    1014     993     242     243
    1015     994     240     241
    1016     995     240     242
    1017     996     240     243
    1018     997     237     241
    1019     998     237     242
    1020     999     236     240
    1021    1000     233     236
    1022    1001     236     237
    1023    1002     237     240
    1024    1003     150     151
    1025    1004     150     152
    1026    1005      67      70
    1027    1006      67      71
    1028    1007     233     237
    1029     991      70      71
    1030    1008      70      74
    1031     521      71      74
    1032    1009      71      75
    1033    1010      74      75
    1034    1011      75      77
    1035      63     265     266
    1036    1012     265     267
    1037    1013     265     268
    1038    1014     265     269
    1039    1015     266     267
    1040    1016     266     268
    1041    1017     266     269
    1042    1018     267     268
    1043    1019     267     269
    1044    1020     268     269
    1045    1021     267     271
    1046    1022     268     271
    1047    1023     269     271
    1048    1024     266     270
    1049    1025     267     270
    1050    1026     268     270
    1051    1027     269     270
    1052    1028     269     273
    1053    1029     268     272
    1054    1030     269     272
    1055     611     271     287
    1056     476     287     288
    1057    1031     271     286
    1058    1032     285     287
    1059    1033     286     287
    1060    1034     286     288
    1061    1035     271     273
    1062    1036     271     274
    1063    1037     271     272
    1064    1038     271     275
    1065     766     270     271
    1066    1039     285     286
    1067    1040     283     285
    1068    1041     284     285
    1069    1042     284     286
    1070    1043     160     161
    1071    1044     160     162
    1072    1045     166     168
    1073    1046     167     168
    1074     576     168     169
    1075    1047     161     162
    1076     480     161     163
    1077    1048     161     164
    1078    1049     161     165
    1079    1050     162     163
    1080    1051     162     164
    1081    1052     162     165
    1082    1053     163     164
    1083    1054     163     165
    1084    1055     164     165
    1085    1056     162     166
    1086    1057     163     166
    1087    1058     163     167
    1088    1059     164     166
    1089    1060     164     167
    1090     823     165     166
    1091    1061     165     167
    1092    1062     164     168
    1093    1063     165     168
    1094    1064     166     167
    1095    1065     167     169
    1096    1066     270     273
    1097    1067     270     274
    1098    1068     270     272
    1099    1069     273     274
    1100    1070     272     273
    1101    1071     273     275
    1102    1072     273     276
    1103    1073     272     274
    1104    1074     274     275
    1105    1075     274     276
    1106    1076     274     282
    1107    1077     273     277
    1108    1078     274     277
    1109    1079     283     284
    1110    1080     281     283
    1111    1081     282     283
    1112    1082     282     284
    1113    1083     272     275
    1114    1084     272     276
    1115    1085     275     276
    1116     859     275     277
    1117    1086     276     277
    1118    1087     275     278
    1119    1088     276     278
    1120    1089     280     281
    1121    1090     280     282
    1122    1091     281     282
    1123    1092     278     280
    1124    1093     279     280
    1125    1094     278     281
    1126     574     279     281
    1127    1095     278     282
    1128    1096     279     282
    1129    1097     277     278
    1130    1098     277     279
    1131    1099     277     281
    1132    1100     277     282
    1133    1101     278     279
    1134    1102     579     581
    1135    1103     580     581
    1136    1104     581     582
    1137    1105     581     583
    1138    1106     578     579
    1139    1107     578     580
    1140    1108     579     580
    1141    1109     576     578
    1142    1110     577     578
    1143    1111     576     579
    1144     632     577     579
    1145    1112     576     580
    1146     711     577     580
    1147    1113     572     580
    1148    1114     575     579
    1149    1115     575     580
    1150    1116     576     577
    1151    1117     574     576
    1152    1118     575     576
    1153    1119     575     577
    1154    1120     573     576
    1155     976     582     583
    1156    1121     582     584
    1157    1122     583     584
    1158    1123     580     582
    1159    1124     583     585
    1160    1125     595     596
    1161     614     594     596
    1162    1126     589     596
    1163    1127     584     585
    1164    1128     585     586
    1165    1129     565     585
    1166    1130     568     585
    1167    1131     569     585
    1168    1132     585     587
    1169    1133     571     572
    1170    1134     571     573
    1171    1135     572     573
    1172    1136     571     574
    1173    1137     571     575
    1174    1138     572     574
    1175    1139     572     575
    1176    1140     573     574
    1177    1141     573     575
    1178    1142     567     571
    1179    1143     568     571
    1180    1144     569     571
    1181    1145     570     571
    1182    1146     568     572
    1183    1147     569     572
    1184    1148     570     572
    1185    1149     569     573
    1186    1150     570     573
    1187    1151     574     575
    1188    1152     570     574
    1189     885     593     595
    1190    1153     594     595
    1191    1154     584     586
    1192    1155     586     587
    1193    1156     586     588
    1194    1157     593     594
    1195    1158     592     594
    1196    1159     564     565
    1197     572     564     566
    1198    1160     564     567
    1199    1161     564     568
    1200    1162     565     566
    1201    1163     565     567
    1202    1164     565     568
    1203    1165     565     569
    1204    1166     565     587
    1205    1167     560     564
    1206    1168     561     564
    1207    1169     562     564
    1208    1170     563     564
    1209    1171     561     565
    1210    1172     562     565
    1211    1173     563     565
    1212    1174     566     567
    1213    1175     566     568
    1214    1176     566     569
    1215    1177     566     570
    1216    1178     567     568
    1217    1179     567     569
    1218    1180     567     570
    1219    1181     568     569
    1220    1182     568     570
    1221    1183     569     570
    1222    1184     465     570
    1223    1185     462     566
    1224    1186     462     567
    1225    1187     466     566
    1226    1188     466     569
    1227    1189     466     570
    1228    1190     562     566
    1229    1191     563     566
    1230    1192     563     567
    1231    1193     465     466
    1232    1194     465     467
    1233    1195     461     465
    1234    1196     464     465
    1235    1197     462     465
    1236    1198     463     465
    1237    1199     589     593
    1238    1200     590     593
    1239    1201     592     593
    1240    1202     591     593
    1241    1203     588     589
    1242    1204     588     590
    1243    1205     589     590
    1244    1206     587     588
    1245    1207     587     589
    1246    1208     556     590
    1247    1209     557     590
    1248    1210     590     592
    1249    1211     589     591
    1250    1212     590     591
    1251    1213     466     470
    1252    1214     467     470
    1253    1215     468     470
    1254     876     470     471
    1255    1216     469     470
    1256    1217     470     472
    1257    1218     466     467
    1258    1219     466     468
    1259    1140     467     468
    1260     853     467     469
    1261    1220     468     469
    1262    1221     464     466
    1263    1222     464     468
    1264    1223     462     466
    1265    1224     463     466
    1266    1225     469     471
    1267    1226     471     472
    1268    1227     471     473
    1269    1228     471     545
    1270     917     468     471
    1271    1229     471     546
    1272    1230     591     592
    1273    1231     557     591
    1274    1232     558     559
    1275    1233     558     560
    1276    1234     558     561
    1277    1235     558     562
    1278    1236     556     558
    1279    1237     557     558
    1280    1238     553     558
    1281    1239     554     558
    1282    1240     555     558
    1283    1241     559     560
    1284    1242     559     561
    1285    1243     559     562
    1286    1244     559     563
    1287    1245     560     561
    1288    1246     560     562
    1289    1247     560     563
    1290    1248     561     562
    1291    1249     561     563
    1292    1250     562     563
    1293    1251     554     559
    1294    1252     553     562
    1295    1253     554     562
    1296    1254     462     463
    1297    1255     460     462
    1298    1256     461     462
    1299    1257     462     464
    1300    1258     460     463
    1301    1259     461     463
    1302     486     463     464
    1303    1260     463     546
    1304    1261     458     462
    1305     821     459     462
    1306    1262     459     463
    1307    1263     460     461
    1308    1264     460     464
    1309    1265     461     464
    1310    1266     453     460
    1311    1267     458     460
    1312    1268     459     460
    1313    1269     459     461
    1314    1270     556     557
    1315    1271     553     556
    1316    1272     554     556
    1317    1273     553     557
    1318    1274     554     557
    1319    1275     555     556
    1320    1276     555     557
    1321    1277     552     556
    1322    1278     557     559
    1323    1279     557     561
    1324    1280     557     562
    1325    1281     549     550
    1326    1282     549     553
    1327    1283     550     553
    1328    1284     550     554
    1329    1285     553     554
    1330    1286     546     549
    1331    1287     546     550
    1332    1288     477     549
    1333    1289     549     551
    1334    1290     549     552
    1335    1291     550     551
    1336    1292     550     552
    1337    1293     551     553
    1338    1294     552     553
    1339    1295     498     554
    1340    1296     551     554
    1341    1297     552     554
    1342    1298     545     549
    1343    1299     547     549
    1344    1300     547     550
    1345    1301     553     555
    1346    1302     554     555
    1347    1303     548     549
    1348    1304     548     550
    1349    1305     545     546
    1350    1306     546     547
    1351    1307     542     546
    1352    1308     543     546
    1353    1309     544     546
    1354    1310     546     548
    1355    1311     480     484
    1356    1312     483     484
    1357    1313     484     485
    1358    1314     484     486
    1359    1315     481     484
    1360    1316     482     484
    1361    1317     477     480
    1362    1318     472     477
    1363    1319     473     477
    1364    1320     474     477
    1365    1321     476     477
    1366    1322     477     479
    1367    1323     476     480
    1368    1324     479     480
    1369    1325     477     481
    1370    1326     480     481
    1371    1327     475     477
    1372    1328     477     548
    1373     876     477     478
    1374    1329     478     480
    1375    1330     480     482
    1376    1331     472     473
    1377    1332     472     474
    1378    1333     472     545
    1379     971     473     474
    1380    1334     473     545
    1381    1335     474     545
    1382    1336     542     545
    1383    1337     473     475
    1384    1338     474     475
    1385    1339     474     544
    1386     519     544     545
    1387    1340     545     548
    1388    1341     474     541
    1389    1342     541     545
    1390    1343     545     547
    1391    1344     474     478
    1392    1345     543     545
    1393    1346     539     542
    1394    1347     538     542
    1395    1348     540     542
    1396    1349     541     542
    1397    1350     542     544
    1398    1351     542     543
    1399    1352     535     539
    1400    1353     539     540
    1401    1354     539     541
    1402    1355     536     539
    1403    1356     479     483
    1404    1357     482     483
    1405    1358     480     483
    1406    1359     483     485
    1407    1360     483     486
    1408    1361     481     483
    1409    1362     476     479
    1410    1363     475     476
    1411    1364     475     479
    1412    1365     476     478
    1413    1366     478     479
    1414    1367     472     476
    1415    1368     473     476
    1416    1369     474     476
    1417    1370     479     482
    1418    1371     479     481
    1419    1372     475     478
    1420    1373     537     538
    1421    1374     533     537
    1422    1375     536     537
    1423    1376     536     538
    1424    1377     534     537
    1425    1378     535     537
    1426    1379     534     538
    1427    1380     535     538
    1428    1381     537     539
    1429     698     538     539
    1430    1382     537     540
    1431    1383     537     541
    1432    1384     538     540
    1433    1385     538     541
    1434    1386     453     457
    1435    1387     454     457
    1436    1388     457     458
    1437    1389     457     459
    1438    1390     343     457
    1439    1391     455     457
    1440    1392     453     456
    1441    1393     454     456
    1442    1394     456     458
    1443    1395     345     456
    1444    1396     455     456
    1445    1397     456     457
    1446    1398     452     453
    1447    1399     452     454
    1448    1400     453     454
    1449    1401     453     458
    1450    1402     453     459
    1451    1403     454     458
    1452    1404     454     459
    1453    1405     458     459
    1454    1406     451     452
    1455    1407     451     453
    1456    1408     451     454
    1457    1409     453     455
    1458    1410     454     455
    1459    1411     450     452
    1460    1412     343     454
    1461    1413     449     451
    1462    1414     450     451
    1463    1415     498     555
    1464    1416     551     555
    1465    1417     552     555
    1466    1418     498     502
    1467    1419     498     551
    1468    1420     502     551
    1469    1421     551     552
    1470    1422     547     551
    1471    1423     481     552
    1472    1424     498     500
    1473    1425     498     501
    1474    1426     500     502
    1475    1427     501     502
    1476    1428     501     551
    1477    1429     502     548
    1478    1430     548     551
    1479    1431     548     552
    1480      88     502     503
    1481    1432     498     499
    1482    1433     499     502
    1483    1434     497     498
    1484    1435     502     504
    1485    1436     502     505
    1486    1437     502     506
    1487     292     496     498
    1488    1438     543     547
    1489    1439     544     547
    1490    1440     547     548
    1491    1441     540     543
    1492    1442     541     543
    1493    1443     485     486
    1494    1444     481     485
    1495    1445     481     486
    1496    1446     482     485
    1497    1447     482     486
    1498    1448     485     487
    1499    1449     485     488
    1500    1450     485     489
    1501    1451     486     487
    1502    1452     486     488
    1503    1453     486     489
    1504    1454     486     490
    1505    1455     478     481
    1506    1456     544     548
    1507    1457     541     544
    1508    1458     505     548
    1509    1459     543     544
    1510    1460     540     541
    1511    1461     536     540
    1512    1462     536     541
    1513    1463     535     540
    1514    1464     478     482
    1515    1465     481     482
    1516    1466     482     489
    1517    1467     533     536
    1518    1468     532     533
    1519    1459     533     534
    1520    1469     533     535
    1521    1470     532     536
    1522    1471     534     536
    1523    1472     535     536
    1524    1473     513     533
    1525    1474     516     533
    1526    1475     530     533
    1527    1476     531     533
    1528    1477     517     533
    1529    1478     520     533
    1530    1479     532     534
    1531    1480     532     535
    1532    1481     534     535
    1533    1482     530     532
    1534    1483     531     532
    1535    1484     530     534
    1536    1485     531     534
    1537    1486     531     535
    1538    1487     519     532
    1539    1488     520     532
    1540    1489     516     532
    1541    1490     369     373
    1542    1491     370     373
    1543    1492     371     373
    1544    1493     372     373
    1545    1494     373     374
    1546    1495     373     375
    1547    1496     528     529
    1548    1497     528     530
    1549    1498     528     531
    1550    1499     529     530
    1551    1500     529     531
    1552    1501     530     531
    1553    1502     526     528
    1554    1503     526     529
    1555    1504     520     529
    1556    1505     520     530
    1557     895     527     528
    1558    1506     527     529
    1559    1507     526     527
    1560    1508     374     526
    1561    1509     376     526
    1562    1510     525     526
    1563    1511     523     526
    1564    1512     524     526
    1565    1513     525     527
    1566    1514     342     343
    1567    1164     342     344
    1568    1515     343     344
    1569    1516     341     342
    1570    1517     341     343
    1571    1518     342     455
    1572    1519     343     455
    1573    1520     344     455
    1574    1521     339     342
    1575    1522     338     342
    1576    1523     340     342
    1577    1524     344     346
    1578    1525     341     450
    1579    1526     337     341
    1580    1527     338     341
    1581    1528     339     341
    1582    1529     340     341
    1583    1530     496     497
    1584    1531     494     496
    1585    1532     495     496
    1586    1533     496     499
    1587    1534     496     500
    1588    1535     345     351
    1589    1536     345     455
    1590    1537     497     500
    1591    1538     497     501
    1592    1539     345     347
    1593    1540     348     497
    1594    1541     343     345
    1595    1542     344     345
    1596    1543     345     346
    1597    1544     351     354
    1598    1545     354     450
    1599    1546     351     355
    1600     372     354     355
    1601    1547     350     351
    1602    1548     340     354
    1603    1549     350     354
    1604    1550     354     358
    1605    1551     351     352
    1606    1552     351     353
    1607    1553     352     354
    1608    1554     353     354
    1609    1555     354     356
    1610    1556     347     351
    1611    1557     348     351
    1612    1558     349     351
    1613    1559     354     357
    1614    1560     449     450
    1615    1561     358     449
    1616    1562     448     449
    1617    1563     448     450
    1618    1564     494     495
    1619    1565     494     499
    1620    1566     495     499
    1621    1567     494     500
    1622    1568     495     500
    1623    1569     499     500
    1624    1570     499     501
    1625    1571     488     494
    1626     994     493     494
    1627    1572     493     495
    1628    1573     488     499
    1629    1574     499     503
    1630    1575     492     494
    1631    1576     306     495
    1632    1577     495     497
    1633    1578     497     499
    1634    1579     348     495
    1635    1373     500     501
    1636    1580     500     503
    1637    1581     501     503
    1638    1582     500     504
    1639    1583     501     504
    1640    1584     501     505
    1641    1585     352     501
    1642    1586     351     501
    1643    1587     348     500
    1644    1588     355     358
    1645    1589     355     504
    1646    1590     352     355
    1647    1591     353     355
    1648    1592     355     356
    1649    1593     355     359
    1650    1594     355     357
    1651    1595     358     361
    1652    1596     358     359
    1653    1597     358     362
    1654    1598     357     358
    1655    1599     358     360
    1656    1600     356     358
    1657    1601     361     364
    1658    1602     361     365
    1659    1603     357     361
    1660    1604     360     361
    1661    1605     487     488
    1662    1606     487     489
    1663    1607     487     491
    1664    1608     487     493
    1665    1609     488     489
    1666    1610     488     491
    1667    1611     488     493
    1668    1612     489     491
    1669    1613     491     493
    1670    1614     489     503
    1671    1615     487     490
    1672    1616     488     490
    1673    1617     489     490
    1674    1618     490     491
    1675    1619     488     492
    1676    1620     491     492
    1677    1621     492     493
    1678    1622     300     489
    1679    1623     300     491
    1680    1624     301     489
    1681    1625     301     491
    1682      33     503     504
    1683    1626     503     505
    1684    1627     503     506
    1685    1004     503     507
    1686     160     504     505
    1687    1628     504     506
    1688    1629     504     507
    1689    1244     504     508
    1690    1630     505     506
    1691    1631     505     507
    1692    1632     505     508
    1693    1633     505     509
    1694    1634     506     507
    1695    1635     506     508
    1696     436     506     509
    1697      63     507     508
    1698    1636     507     509
    1699    1637     508     509
    1700    1638     359     508
    1701    1639     506     510
    1702    1640     507     510
    1703    1641     508     510
    1704    1642     509     510
    1705    1643     507     511
    1706    1644     508     511
    1707    1645     508     512
    1708    1646     509     511
    1709    1647     509     512
    1710     760     509     513
    1711     749     352     504
    1712    1648     359     362
    1713    1649     359     363
    1714    1650     362     363
    1715    1651     362     364
    1716    1652     362     365
    1717    1653     362     366
    1718    1654     363     364
    1719    1655     363     365
    1720    1656     363     366
    1721    1657     363     512
    1722    1041     359     360
    1723    1658     360     362
    1724    1659     360     363
    1725     386     363     367
    1726    1660     359     361
    1727    1661     361     362
    1728    1662     361     363
    1729    1393     357     359
    1730    1663     356     359
    1731    1664     364     365
    1732    1665     364     366
    1733    1666     365     366
    1734    1667     364     368
    1735    1668     365     368
    1736    1669     366     368
    1737    1670     364     367
    1738    1671     365     367
    1739    1672     366     367
    1740    1673     365     369
    1741    1674     366     369
    1742    1675     366     370
    1743    1676     360     364
    1744    1677     368     369
    1745    1678     368     370
    1746    1679     368     371
    1747    1307     368     372
    1748    1680     368     384
    1749     855     299     490
    1750     160     299     300
    1751    1681     300     490
    1752    1682     299     301
    1753    1683     301     490
    1754    1684     490     492
    1755    1650     300     301
    1756    1685     300     302
    1757    1686     510     511
    1758    1687     510     512
    1759    1688     510     513
    1760    1689     510     514
    1761     757     511     512
    1762    1690     511     513
    1763    1691     511     514
    1764    1692     511     515
    1765     900     512     513
    1766    1693     512     514
    1767    1694     512     515
    1768    1695     512     516
    1769    1696     513     514
    1770    1697     513     515
    1771    1698     513     516
    1772    1699     514     515
    1773    1700     514     516
    1774    1701     515     516
    1775    1702     513     517
    1776    1703     514     517
    1777    1704     514     518
    1778    1705     515     517
    1779    1706     515     518
    1780    1707     516     517
    1781    1708     516     518
    1782    1709     515     519
    1783    1710     516     519
    1784    1711     516     520
    1785    1712     367     369
    1786    1713     367     370
    1787    1714     367     371
    1788    1715     367     383
    1789    1716     367     384
    1790    1717     367     387
    1791    1718     367     368
    1792    1719     369     370
    1793    1720     369     371
    1794    1721     369     372
    1795    1722     370     371
    1796    1723     370     372
    1797     706     371     372
    1798    1724     370     374
    1799    1725     371     374
    1800    1726     372     374
    1801    1727     371     380
    1802    1728     371     381
    1803    1729     517     518
    1804    1730     517     521
    1805    1731     518     521
    1806    1732     517     519
    1807    1733     517     520
    1808    1734     518     519
    1809    1735     518     520
    1810    1736     518     522
    1811    1737     519     521
    1812    1738     520     521
    1813     708     521     522
    1814    1739     521     523
    1815    1740     519     520
    1816    1198     519     522
    1817    1741     519     523
    1818    1742     520     522
    1819    1743     520     523
    1820    1744     522     523
    1821    1745     522     524
    1822    1746     523     524
    1823    1747     523     525
    1824    1748     374     376
    1825    1749     374     377
    1826    1750     376     377
    1827    1751     374     375
    1828    1752     375     376
    1829    1753     375     377
    1830     596     376     525
    1831    1754     377     525
    1832    1755     377     379
    1833    1756     376     378
    1834    1757     377     378
    1835    1758     377     380
    1836    1759     524     525
    1837    1760     339     346
    1838    1761     346     347
    1839    1762     346     348
    1840    1763     346     350
    1841    1764     336     339
    1842    1765     336     337
    1843    1766     336     338
    1844    1767     337     339
    1845    1768     338     339
    1846     173     336     340
    1847    1769     339     340
    1848    1770     333     336
    1849    1771     335     336
    1850    1772     332     336
    1851    1773     334     336
    1852    1774     337     338
    1853    1775     333     337
    1854    1776     335     337
    1855    1777     332     337
    1856    1778     334     337
    1857    1779     347     348
    1858    1780     347     349
    1859    1781     348     349
    1860    1782     347     350
    1861    1783     348     350
    1862    1784     349     350
    1863    1785     349     406
    1864    1786     348     352
    1865    1787     349     352
    1866    1788     349     353
    1867    1789     349     402
    1868    1790     340     350
    1869    1791     350     352
    1870    1792     350     353
    1871    1793     337     340
    1872    1794     338     340
    1873    1795     330     333
    1874    1796     331     333
    1875    1797     332     333
    1876    1798     333     334
    1877    1799     329     333
    1878    1800     333     335
    1879    1801     304     307
    1880     617     305     307
    1881    1802     307     309
    1882    1232     307     308
    1883     201     352     353
    1884    1803     352     356
    1885    1804     353     356
    1886    1805     353     357
    1887     844     356     357
    1888    1806     353     399
    1889    1807     353     402
    1890    1808     356     360
    1891    1809     357     360
    1892    1810     306     492
    1893    1811     304     306
    1894     708     305     306
    1895    1812     305     492
    1896    1813     301     492
    1897    1814     306     307
    1898    1815     306     308
    1899    1816     303     304
    1900    1817     303     305
    1901    1818     304     305
    1902    1819     301     303
    1903     933     302     303
    1904    1820     302     304
    1905    1821     302     305
    1906    1822     304     309
    1907    1823     304     310
    1908    1824     305     309
    1909    1825     305     310
    1910    1826     304     311
    1911    1827     304     308
    1912    1828     305     308
    1913    1829     391     395
    1914    1830     392     395
    1915    1831     393     395
    1916    1832     395     396
    1917      27     394     395
    1918    1833     395     397
    1919     114     395     398
    1920    1834     325     395
    1921    1835     395     399
    1922    1836     301     302
    1923    1837     302     310
    1924    1838     386     391
    1925    1839     387     391
    1926    1840     390     391
    1927    1841     389     391
    1928    1842     391     392
    1929    1843     391     393
    1930    1844     388     391
    1931    1845     391     394
    1932    1846     383     384
    1933    1847     383     385
    1934    1848     383     386
    1935    1849     383     387
    1936    1850     384     385
    1937    1851     384     386
    1938    1852     384     387
    1939    1853     385     386
    1940    1854     385     387
    1941    1855     386     387
    1942    1856     381     383
    1943    1857     382     383
    1944    1858     381     384
    1945    1859     382     384
    1946    1860     381     385
    1947    1861     382     385
    1948    1862     382     386
    1949    1863     385     389
    1950    1864     386     389
    1951    1148     387     389
    1952    1865     386     390
    1953    1866     387     390
    1954    1867     384     388
    1955    1868     385     388
    1956    1869     386     388
    1957    1020     387     388
    1958    1870     387     392
    1959    1543     380     381
    1960    1871     380     382
    1961    1872     381     382
    1962      35     379     380
    1963    1873     379     381
    1964    1874     379     382
    1965    1875     378     380
    1966    1876     378     379
    1967    1877     331     335
    1968     386     332     335
    1969    1878     334     335
    1970    1879     406     409
    1971    1880     403     406
    1972    1881     406     407
    1973    1882     407     409
    1974    1883     405     406
    1975    1884     405     409
    1976     237     409     410
    1977    1885     406     408
    1978    1886     408     409
    1979    1887     402     406
    1980    1888     404     406
    1981    1889     404     409
    1982    1890     409     412
    1983    1891     409     413
    1984    1892     409     411
    1985    1893     403     407
    1986    1894     332     403
    1987    1895     399     403
    1988     773     400     403
    1989    1896     401     403
    1990    1897     402     403
    1991    1898     403     404
    1992    1899     404     407
    1993    1686     407     408
    1994    1900     330     331
    1995    1901     330     332
    1996    1902     330     334
    1997    1903     331     332
    1998    1904     331     334
    1999    1905     332     334
    2000    1906     327     330
    2001    1907     328     330
    2002    1908     329     330
    2003    1909     327     331
    2004    1910     328     331
    2005    1023     329     331
    2006    1911     328     332
    2007    1912     329     332
    2008    1913     326     330
    2009    1914     308     309
    2010    1915     308     310
    2011    1916     405     410
    2012    1917     401     405
    2013    1918     402     405
    2014    1919     404     405
    2015    1920     405     413
    2016    1921     410     412
    2017    1922     410     413
    2018    1923     410     414
    2019    1924     403     405
    2020    1925     405     407
    2021     891     410     411
    2022     507     405     408
    2023    1926     408     410
    2024    1927     399     400
    2025    1928     399     401
    2026    1929     399     402
    2027     387     400     401
    2028    1930     400     402
    2029    1931     400     404
    2030    1784     401     402
    2031    1932     401     404
    2032    1300     402     404
    2033    1933     328     399
    2034    1934     328     400
    2035    1935     397     399
    2036    1936     398     399
    2037    1937     397     400
    2038    1924     398     400
    2039    1938     397     401
    2040    1939     398     401
    2041    1940     398     402
    2042    1941     396     399
    2043    1402     396     400
    2044    1942     404     413
    2045    1943     322     400
    2046    1944     404     408
    2047    1945     325     327
    2048    1946     325     328
    2049    1673     325     329
    2050    1947     327     328
    2051     673     327     329
    2052    1948     328     329
    2053    1118     325     326
    2054    1949     326     327
    2055    1950     326     328
    2056    1951     326     329
    2057    1952     324     325
    2058    1953     325     392
    2059    1954     325     396
    2060    1955     324     327
    2061    1956     324     328
    2062    1957     323     325
    2063    1958     323     327
    2064    1959     323     328
    2065    1960     309     310
    2066    1961     310     314
    2067    1962     314     397
    2068    1963     309     311
    2069    1964     310     311
    2070    1965     310     312
    2071    1966     311     314
    2072    1967     312     314
    2073    1968     309     313
    2074    1969     310     313
    2075    1970     313     314
    2076    1971     314     417
    2077    1972     314     317
    2078    1973     314     316
    2079    1974     314     315
    2080    1975     394     397
    2081    1976     394     398
    2082    1977     397     398
    2083    1978     392     394
    2084    1979     393     394
    2085    1980     394     396
    2086    1981     393     397
    2087    1982     396     397
    2088    1983     396     398
    2089    1984     322     397
    2090    1985     324     396
    2091    1986     392     393
    2092    1987     392     396
    2093    1988     393     396
    2094    1989     388     392
    2095     318     390     392
    2096     795     390     393
    2097     113     322     324
    2098    1990     322     396
    2099    1991     389     392
    2100    1992     389     393
    2101    1993     319     393
    2102    1994     324     326
    2103     333     323     324
    2104    1995     323     396
    2105     973     388     389
    2106    1178     311     312
    2107    1996     312     316
    2108    1997     311     315
    2109    1998     312     315
    2110    1999     311     313
    2111    1886     312     313
    2112    2000     389     390
    2113    2001     388     390
    2114    2002     408     440
    2115    2003     440     442
    2116    2004     440     443
    2117    2005     440     444
    2118    1153     440     441
    2119    2006     439     440
    2120    2007     408     412
    2121    2008     408     413
    2122    2009     408     438
    2123    2010     408     439
    2124    2011     411     412
    2125    2012     411     413
    2126     318     411     414
    2127    2013     411     415
    2128    2014     412     413
    2129    2015     412     414
    2130    2016     412     415
    2131     331     412     416
    2132    2017     413     414
    2133    2018     413     415
    2134    2019     413     416
    2135    2020     414     415
    2136     953     414     416
    2137     728     415     416
    2138    2021     413     417
    2139    2022     414     417
    2140    2023     415     417
    2141    2024     416     417
    2142    2025     416     436
    2143    2026     416     437
    2144    2027     414     418
    2145    2028     415     418
    2146    2029     415     419
    2147    2030     416     418
    2148    2019     416     419
    2149    2031     416     420
    2150    2032     321     323
    2151    2033     322     323
    2152    2034     313     417
    2153    2035     313     316
    2154    2036     313     418
    2155    2037     417     418
    2156    2038     417     419
    2157    2039     417     420
    2158    2040     417     421
    2159    2041     313     315
    2160    2042     317     321
    2161    2043     315     317
    2162    2044     317     318
    2163    2045     317     319
    2164    2046     317     421
    2165    2047     320     321
    2166    2048     320     322
    2167     441     321     322
    2168    2049     319     320
    2169    2050     319     321
    2170    1784     315     316
    2171    2051     316     318
    2172    2052     316     317
    2173    2053     316     421
    2174    2054     315     318
    2175    2055     315     319
    2176    1085     318     319
    2177    2056     318     320
    2178    2057     318     321
    2179    2058     442     443
    2180    2059     442     444
    2181    2060     442     445
    2182    2061     443     444
    2183    2062     443     445
    2184    2063     444     445
    2185    2064     441     442
    2186    2065     441     443
    2187    2066     441     444
    2188    2067     441     445
    2189    2068     442     446
    2190    2069     442     447
    2191    1752     445     446
    2192    2070     445     447
    2193    2071     439     442
    2194    2072     439     441
    2195    2073     438     439
    2196    2074     437     438
    2197    2075     437     439
    2198    2076     436     437
    2199    2077     419     436
    2200    2078     420     436
    2201    2079     434     436
    2202    2080     435     436
    2203    2081     436     438
    2204    1786     435     437
    2205    2082     418     419
    2206    2083     418     420
    2207    2084     418     421
    2208    2085     418     422
    2209    2086     419     420
    2210    2087     419     421
    2211    2088     419     422
    2212     412     420     421
    2213    2089     420     422
    2214    2090     421     422
    2215    2091     420     424
    2216    2092     421     424
    2217    2093     422     424
    2218    2094     419     423
    2219    2095     420     423
    2220    2096     421     423
    2221    2097     422     423
    2222    2098     421     425
    2223     934     422     425
    2224    2099     422     426
    2225    2100     420     435
    2226    2101     424     425
    2227     221     423     424
    2228    2102     424     426
    2229    2103     425     427
    2230    2104     425     426
    2231    2105     423     425
    2232    2106     446     447
    2233     353     433     434
    2234    2107     433     435
    2235      63     434     435
    2236    2108     432     433
    2237    2109     432     434
    2238    1981     423     431
    2239    2110     428     431
    2240    2111     423     426
    2241    2112     426     431
    2242    2090     430     431
    2243    2113     427     431
    2244    2114     431     432
    2245    2115     431     433
    2246    2116     429     431
    2247    2117     427     428
    2248    2118     428     429
    2249    2119     428     430
    2250    2120     426     427
    2251    2121     426     428
    2252    2122     426     430
    2253    2123     427     429
    2254    2124     427     430
    2255    2125     430     432
    2256    2126     429     430
