LAMMPS data file: HBV decamer CG oligomer

894 atoms
3449 bonds

1 atom types
3027 bond types

-28.5810 172.6860 xlo xhi
-37.2340 122.3900 ylo yhi
-71.4790 135.0670 zlo zhi

Masses

1 110.0

Atoms  # bond  (atom_id mol_id atom_type x y z)

     1  1  1    125.917999      2.644000     74.329002
     2  1  1    126.380997      4.545000     77.568001
     3  1  1    126.625999      3.311000     81.266998
     4  1  1    124.096001      5.080000     83.535004
     5  1  1    126.257004      5.731000     86.737000
     6  1  1    123.761002      5.609000     89.583000
     7  1  1    120.681000      4.009000     87.935997
     8  1  1    121.177002      0.252000     89.033997
     9  1  1    121.222000      1.460000     92.622002
    10  1  1    118.087997      3.681000     91.893997
    11  1  1    119.291000      7.171000     91.129997
    12  1  1    119.246002      9.234000     87.920998
    13  1  1    122.086998     11.729000     87.029999
    14  1  1    119.250999     14.340000     87.169998
    15  1  1    118.279999     13.290000     90.713997
    16  1  1    121.913002     13.863000     91.890999
    17  1  1    122.025002     17.195000     89.846001
    18  1  1    118.873001     18.306999     91.598999
    19  1  1    120.864998     18.812000     94.752998
    20  1  1    123.545998     21.649000     95.255997
    21  1  1    127.115997     20.600000     93.945000
    22  1  1    128.701004     21.531000     97.146004
    23  1  1    126.521004     19.334999     99.502998
    24  1  1    128.757996     16.181999     99.335999
    25  1  1    131.824997     15.545000    101.536003
    26  1  1    135.330994     16.205000    100.128998
    27  1  1    137.834000     14.095000     98.288002
    28  1  1    139.763000     13.658000    101.575996
    29  1  1    136.479996     13.440000    103.670998
    30  1  1    134.785995     10.580000    101.916000
    31  1  1    138.141006      8.683000    102.014999
    32  1  1    138.360992      9.468000    105.815002
    33  1  1    134.748993      8.534000    106.509003
    34  1  1    135.125000      5.243000    104.427002
    35  1  1    138.188995      4.380000    106.551003
    36  1  1    136.557999      5.311000    109.950996
    37  1  1    133.153000      3.653000    109.629997
    38  1  1    133.718002      1.044000    106.869003
    39  1  1    137.190994     -0.489000    107.457001
    40  1  1    136.677002     -4.205000    106.941002
    41  1  1    134.403000     -3.459000    103.992996
    42  1  1    137.455002     -1.881000    102.236000
    43  1  1    139.522003     -5.128000    102.927002
    44  1  1    136.742004     -7.624000    102.081001
    45  1  1    137.455994    -11.015000    100.419998
    46  1  1    133.516006    -11.161000    100.167999
    47  1  1    131.326004     -9.314000     97.681999
    48  1  1    128.251999     -8.929000     99.949997
    49  1  1    125.507004     -6.370000     98.870003
    50  1  1    125.874001     -4.448000     95.483002
    51  1  1    126.874001     -1.310000     97.378998
    52  1  1    129.938995     -2.963000     98.877998
    53  1  1    131.388000     -4.003000     95.525002
    54  1  1    130.647003     -0.631000     93.898003
    55  1  1    132.266006      1.164000     96.804001
    56  1  1    135.507996     -0.765000     96.460999
    57  1  1    135.647995     -0.211000     92.724998
    58  1  1    135.037003      3.557000     93.115997
    59  1  1    138.070999      4.044000     95.375999
    60  1  1    140.070007      2.122000     92.778999
    61  1  1    138.697998      4.275000     89.850998
    62  1  1    140.093994      7.507000     91.524002
    63  1  1    143.261993      5.559000     92.258003
    64  1  1    144.261993      5.282000     88.633003
    65  1  1    142.968002      8.899000     88.195000
    66  1  1    145.054001     10.479000     90.876999
    67  1  1    148.061996      8.315000     89.847000
    68  1  1    147.727005     10.104000     86.309998
    69  1  1    146.979996     13.537000     87.954002
    70  1  1    150.143005     13.194000     90.058998
    71  1  1    152.225998     12.090000     87.037003
    72  1  1    150.871002     14.841000     84.814003
    73  1  1    151.802994     17.547001     87.472000
    74  1  1    155.326996     15.980000     87.573997
    75  1  1    155.634995     16.187000     83.720001
    76  1  1    154.423996     19.882999     83.832001
    77  1  1    157.039001     22.524000     84.636002
    78  1  1    154.531006     25.225000     85.716003
    79  1  1    153.500000     25.389999     89.487999
    80  1  1    150.278000     27.242001     88.583000
    81  1  1    149.085999     24.507999     86.093002
    82  1  1    149.727997     21.836000     88.838997
    83  1  1    147.126999     23.656000     90.866997
    84  1  1    144.908005     23.618999     87.834999
    85  1  1    145.199005     19.837999     87.283997
    86  1  1    144.378998     18.908001     90.981003
    87  1  1    141.526993     21.511000     90.768997
    88  1  1    140.028000     19.930000     87.513000
    89  1  1    140.427002     16.521999     89.150002
    90  1  1    138.776993     17.672001     92.400002
    91  1  1    136.026993     19.657000     90.505997
    92  1  1    135.110992     18.804001     86.823997
    93  1  1    135.738998     15.103000     87.087997
    94  1  1    135.878006     14.636000     91.000000
    95  1  1    132.414001     15.953000     91.603996
    96  1  1    130.968002     12.827000     89.928001
    97  1  1    133.436996     10.798000     92.069000
    98  1  1    132.171997     12.571000     95.236000
    99  1  1    128.501999     11.811000     94.158997
   100  1  1    129.220993      8.119000     93.320000
   101  1  1    131.141006      7.174000     96.672997
   102  1  1    128.839996      9.472000     98.845001
   103  1  1    125.837997      7.686000     97.285004
   104  1  1    127.160004      4.302000     98.009003
   105  1  1    128.063995      5.239000    101.608002
   106  1  1    124.644997      6.803000    102.300003
   107  1  1    122.803001      3.858000    100.768997
   108  1  1    124.992996      1.289000    102.501999
   109  1  1    124.570999      3.033000    105.865997
   110  1  1    120.805000      3.883000    105.758003
   111  1  1    119.269997      1.967000    102.771004
   112  1  1    118.219002      3.458000     99.446999
   113  1  1    114.630997      4.715000     99.661003
   114  1  1    115.002998      7.057000    102.671997
   115  1  1    117.984001      8.471000    100.897003
   116  1  1    115.943001      8.697000     97.527000
   117  1  1    113.115997     10.477000     99.526001
   118  1  1    115.768997     12.577000    101.276001
   119  1  1    116.966003     13.773000     97.808998
   120  1  1    113.619003     15.274000     96.680000
   121  1  1    112.968002     16.575001    100.103996
   122  1  1    116.406998     18.278999    100.636002
   123  1  1    115.692001     19.603001     97.065002
   124  1  1    112.277000     20.976999     97.873001
   125  1  1    113.683998     22.514999    101.075996
   126  1  1    116.556999     24.221001     99.112000
   127  1  1    114.182999     25.243999     96.156998
   128  1  1    111.841003     26.580000     98.799004
   129  1  1    113.078003     30.136000     98.968002
   130  1  1    115.509003     31.059999    101.779999
   131  1  1    113.128998     33.164001    104.072998
   132  1  1    110.059998     31.047001    103.431999
   133  1  1    111.918999     27.861000    104.511002
   134  1  1    110.865997     25.492001    107.311996
   135  1  1    113.442001     25.940001    110.178001
   136  1  1    114.801003     22.462999    110.071999
   137  1  1    115.810997     20.802999    106.823997
   138  1  1    114.359001     17.198999    106.010002
   139  1  1    116.841003     14.399000    106.625000
   140  1  1    116.960999     10.467000    106.032997
   141  1  1    115.431999      8.197000    108.823997
   142  1  1    118.037003      7.148000    111.500999
   143  1  1    115.447998      5.646000    113.776001
   144  1  1    115.626999      1.825000    112.995003
   145  1  1    112.138000      1.462000    114.105003
   146  1  1    112.782997     -1.846000    115.931000
   147  1  1    114.165001     -2.785000    119.386002
   148  1  1    117.119003     -4.918000    118.119003
   149  1  1    120.762001     -3.726000    117.309998
   150  1  1    143.546997     -0.785000    104.009003
   151  1  1    144.087006      0.711000    100.592003
   152  1  1    142.272003     -1.635000     98.069000
   153  1  1    143.664993     -4.804000     96.410004
   154  1  1    141.514999     -5.007000     93.245003
   155  1  1    140.692001     -8.752000     92.859001
   156  1  1    140.673004     -9.731000     96.498001
   157  1  1    136.843002     -9.931000     96.640999
   158  1  1    136.813004    -11.719000     93.349998
   159  1  1    139.089005    -14.620000     94.384003
   160  1  1    142.291000    -13.438000     92.598000
   161  1  1    145.651993    -11.636000     92.697998
   162  1  1    147.429001     -8.736000     90.955002
   163  1  1    150.535004    -10.875000     91.263000
   164  1  1    149.113998    -13.422000     88.689003
   165  1  1    147.283005    -10.819000     86.598999
   166  1  1    150.320999     -8.559000     86.054001
   167  1  1    152.688995    -11.546000     85.193001
   168  1  1    150.798996    -12.059000     81.910004
   169  1  1    152.065002    -10.399000     78.588997
   170  1  1    150.315994     -7.335000     77.169998
   171  1  1    149.570999     -9.105000     73.754997
   172  1  1    147.740997    -11.903000     75.544998
   173  1  1    144.998001     -9.338000     76.489998
   174  1  1    142.660995     -8.011000     73.810997
   175  1  1    142.483002     -4.143000     73.408997
   176  1  1    140.192993     -1.964000     75.567001
   177  1  1    138.322006     -1.424000     72.253998
   178  1  1    137.322998     -5.197000     71.891998
   179  1  1    136.320007     -5.381000     75.670998
   180  1  1    134.164993     -2.302000     75.069000
   181  1  1    132.709000     -3.956000     71.972000
   182  1  1    132.014999     -7.255000     73.858002
   183  1  1    130.276993     -5.310000     76.649002
   184  1  1    127.991997     -3.489000     74.157997
   185  1  1    127.461998     -6.649000     71.988998
   186  1  1    126.552002     -9.470000     74.533997
   187  1  1    125.790001     -7.685000     77.780998
   188  1  1    124.026001     -4.499000     76.767998
   189  1  1    120.816002     -5.648000     78.455002
   190  1  1    122.473999     -6.330000     81.778000
   191  1  1    124.565002     -3.053000     81.625999
   192  1  1    121.264000     -0.989000     80.987000
   193  1  1    119.558998     -3.152000     83.749001
   194  1  1    117.178001     -1.478000     86.478996
   195  1  1    118.098999     -4.397000     88.629997
   196  1  1    121.272003     -5.998000     90.156998
   197  1  1    122.935997     -8.862000     88.101997
   198  1  1    126.438004     -9.871000     89.405998
   199  1  1    129.386002     -8.209000     90.975998
   200  1  1    131.156998     -8.862000     87.573997
   201  1  1    128.460007     -6.877000     85.710999
   202  1  1    128.792007     -4.072000     88.295998
   203  1  1    132.641998     -4.012000     88.011002
   204  1  1    132.084000     -3.892000     84.307999
   205  1  1    129.968002     -0.879000     84.717003
   206  1  1    132.440002      0.742000     87.139000
   207  1  1    135.610001      0.204000     85.137001
   208  1  1    134.158005      1.682000     81.844002
   209  1  1    133.182999      4.849000     83.974998
   210  1  1    136.764008      4.643000     85.252998
   211  1  1    138.315994      4.605000     81.766998
   212  1  1    136.031998      7.302000     80.560997
   213  1  1    137.000000      9.927000     83.078003
   214  1  1    140.656006      8.798000     82.472000
   215  1  1    140.339996      9.457000     78.750999
   216  1  1    138.572006     12.864000     79.294998
   217  1  1    141.363998     13.958000     81.738998
   218  1  1    144.153000     12.906000     79.195000
   219  1  1    142.261002     14.645000     76.459999
   220  1  1    141.641006     17.851999     78.386002
   221  1  1    145.408997     17.882000     79.338997
   222  1  1    146.369995     17.118999     75.768997
   223  1  1    144.067001     19.921000     74.665001
   224  1  1    145.822998     22.396000     76.983002
   225  1  1    149.330994     21.635000     75.736000
   226  1  1    150.393997     22.903999     72.349998
   227  1  1    153.145004     20.340000     71.932999
   228  1  1    152.059006     17.112000     69.847000
   229  1  1    154.880005     15.025000     71.504997
   230  1  1    153.774002     16.016001     75.029999
   231  1  1    150.110001     14.825000     74.026001
   232  1  1    151.649002     11.566000     72.619003
   233  1  1    153.481003     11.296000     76.052002
   234  1  1    150.251007     11.687000     78.122002
   235  1  1    148.223999      9.508000     75.873001
   236  1  1    150.772003      6.693000     75.677002
   237  1  1    150.899002      6.710000     79.556999
   238  1  1    147.067993      6.197000     79.494003
   239  1  1    147.240997      3.263000     76.933998
   240  1  1    150.324005      1.600000     78.650002
   241  1  1    151.139999      2.416000     82.337997
   242  1  1    147.457993      2.919000     83.275002
   243  1  1    145.819000      1.019000     80.378998
   244  1  1    147.475006     -2.306000     80.806000
   245  1  1    145.634003     -2.466000     84.180000
   246  1  1    142.253998     -1.761000     82.444000
   247  1  1    142.893005     -4.525000     79.914001
   248  1  1    143.451996     -6.929000     82.908997
   249  1  1    140.487000     -5.577000     84.794998
   250  1  1    137.910004     -5.439000     81.962997
   251  1  1    139.158997     -8.863000     80.591003
   252  1  1    138.903000    -10.578000     84.030998
   253  1  1    135.212997     -9.337000     84.492996
   254  1  1    134.207001     -9.892000     80.873001
   255  1  1    135.647995    -13.283000     80.806999
   256  1  1    133.992004    -14.385000     84.084000
   257  1  1    130.658005    -13.226000     82.650002
   258  1  1    131.341003    -15.245000     79.358002
   259  1  1    132.945999    -18.296000     80.852997
   260  1  1    132.380005    -18.424999     84.655998
   261  1  1    135.037994    -17.243999     87.237000
   262  1  1    136.438004    -20.726999     88.245003
   263  1  1    136.772995    -21.857000     84.586998
   264  1  1    138.860001    -18.664000     83.795998
   265  1  1    141.257004    -18.907000     86.738998
   266  1  1    142.018005    -22.629999     86.070999
   267  1  1    142.798004    -21.496000     82.509003
   268  1  1    145.110992    -18.863001     83.933998
   269  1  1    146.733002    -21.363001     86.404999
   270  1  1    147.457001    -23.847000     83.556000
   271  1  1    148.807007    -20.856001     81.425003
   272  1  1    151.067001    -19.813000     84.321999
   273  1  1    153.080002    -23.087999     84.731003
   274  1  1    153.828995    -22.862000     80.903000
   275  1  1    155.263000    -19.271999     81.176003
   276  1  1    157.149002    -20.346001     84.348000
   277  1  1    158.576996    -23.330000     82.283997
   278  1  1    161.703003    -22.136000     80.250000
   279  1  1    160.968994    -21.889000     76.481003
   280  1  1    162.686005    -25.080999     75.218002
   281  1  1    161.257004    -27.153999     77.995003
   282  1  1    157.628998    -26.514000     77.107002
   283  1  1    155.145004    -27.233999     74.121002
   284  1  1    155.149002    -24.577999     71.242996
   285  1  1    151.376007    -23.705999     71.419998
   286  1  1    150.059006    -21.500999     74.294998
   287  1  1    147.031006    -22.798000     76.152000
   288  1  1    143.813995    -21.868999     74.217003
   289  1  1    140.675003    -20.309999     75.790001
   290  1  1    137.957001    -22.764000     76.955002
   291  1  1    134.537003    -23.386000     75.269997
   292  1  1    131.358002    -21.461000     76.100998
   293  1  1    129.044998    -22.797001     78.857002
   294  1  1    125.844002    -24.603001     77.593002
   295  1  1    123.172997    -22.024000     76.719002
   296  1  1    124.193001    -18.570999     75.846001
   297  1  1    121.134003    -17.233000     73.972000
   298  1  1    117.510002    -18.653000     74.216003
   299  1  1     27.163000     77.135002     80.537003
   300  1  1     24.878000     80.116997     80.985001
   301  1  1     21.511000     80.514000     82.928001
   302  1  1     18.730000     81.917000     80.696999
   303  1  1     16.997000     84.449997     83.130997
   304  1  1     13.373000     84.463997     82.028999
   305  1  1     13.160000     81.351997     79.788002
   306  1  1     11.719000     78.735001     82.364998
   307  1  1      8.814000     81.098999     82.917999
   308  1  1      8.479000     81.563004     79.051003
   309  1  1     10.329000     84.706001     78.094002
   310  1  1     13.508000     85.269997     76.060997
   311  1  1     16.007999     88.125000     76.889000
   312  1  1     15.116000     89.350998     73.341003
   313  1  1     11.382000     89.396004     74.153999
   314  1  1     12.061000     91.666000     77.203003
   315  1  1     14.523000     93.797997     75.039001
   316  1  1     11.797000     94.220001     72.461998
   317  1  1     10.004000     96.547997     74.814003
   318  1  1     11.274000    100.148003     75.774002
   319  1  1     13.808000    100.097000     78.796997
   320  1  1     11.872000    102.654999     80.623001
   321  1  1      8.433000    100.837997     80.640999
   322  1  1      8.984000     98.917999     83.955002
   323  1  1      8.291000    100.320999     87.448997
   324  1  1     11.198000    101.667999     89.556000
   325  1  1     13.529000    100.122002     92.061996
   326  1  1     11.415000    101.671997     94.863998
   327  1  1      8.085000    101.037003     92.935997
   328  1  1      8.345000     97.324997     92.406998
   329  1  1      9.390000     96.987999     96.102997
   330  1  1      6.298000     99.135002     97.070999
   331  1  1      3.919000     97.252998     94.791000
   332  1  1      5.302000     93.820999     96.063004
   333  1  1      4.632000     95.001999     99.640999
   334  1  1      1.100000     96.439003     98.902000
   335  1  1     -0.431000     93.642998     96.832001
   336  1  1      1.758000     90.613998     97.716003
   337  1  1      2.493000     90.811996    101.481003
   338  1  1      2.029000     87.262001    102.716003
   339  1  1      3.750000     85.972000     99.586998
   340  1  1      6.933000     87.805000    100.766998
   341  1  1      6.639000     86.056999    104.251999
   342  1  1      5.689000     82.585999    102.940002
   343  1  1      6.834000     79.348999    104.666000
   344  1  1      5.286000     77.668999    101.442001
   345  1  1      6.842000     77.518997     97.986000
   346  1  1      3.564000     77.539001     95.987000
   347  1  1      3.773000     78.306000     92.164001
   348  1  1      7.264000     78.837997     90.482002
   349  1  1      6.624000     82.582001     90.350998
   350  1  1      6.357000     82.860001     94.123001
   351  1  1      9.747000     81.278999     94.779999
   352  1  1     11.473000     83.282997     92.028000
   353  1  1      9.971000     86.482002     93.369003
   354  1  1     11.348000     85.914001     96.851997
   355  1  1     14.791000     85.066002     95.544998
   356  1  1     14.877000     88.196999     93.327003
   357  1  1     14.325000     90.568001     96.264000
   358  1  1     17.131001     88.717003     98.033997
   359  1  1     19.493999     88.969002     94.959999
   360  1  1     19.242001     92.858002     95.039001
   361  1  1     19.636999     92.641998     98.803001
   362  1  1     23.209000     91.445999     98.637001
   363  1  1     23.691999     93.889999     95.680000
   364  1  1     22.554001     96.996002     97.439003
   365  1  1     24.386000     95.889000    100.634003
   366  1  1     27.674000     95.990997     98.397003
   367  1  1     26.538000     99.246002     96.617996
   368  1  1     26.025000    100.900002    100.016998
   369  1  1     29.393000     99.622002    101.324997
   370  1  1     31.254999    100.649002     98.191002
   371  1  1     29.837000    104.278999     98.450996
   372  1  1     31.014000    104.288002    102.125000
   373  1  1     34.570999    103.163002    101.086998
   374  1  1     34.623001    105.906998     98.329002
   375  1  1     35.563000    109.426003     99.422997
   376  1  1     34.007999    111.195000     96.389999
   377  1  1     30.271999    112.337997     96.629997
   378  1  1     29.985001    112.389999     92.816002
   379  1  1     31.136000    108.700996     92.410004
   380  1  1     28.514999    107.668999     95.084000
   381  1  1     25.923000    109.000000     92.696999
   382  1  1     27.596001    107.031998     89.969002
   383  1  1     27.507000    103.712997     91.882004
   384  1  1     23.726999    103.973000     92.806000
   385  1  1     23.135000    105.056000     89.140999
   386  1  1     25.037001    101.956001     87.684998
   387  1  1     23.145000     99.799004     90.179001
   388  1  1     19.775999    101.361000     89.272003
   389  1  1     20.591000    101.336998     85.473999
   390  1  1     23.259001     98.917999     84.007004
   391  1  1     22.618000     96.091003     86.407997
   392  1  1     19.160000     97.181000     87.955002
   393  1  1     17.343000     97.239998     84.669998
   394  1  1     17.594999     93.421997     84.498001
   395  1  1     16.431000     93.393997     88.164001
   396  1  1     13.421000     95.599998     87.241997
   397  1  1     12.603000     93.194000     84.283997
   398  1  1     12.973000     90.003998     86.415001
   399  1  1     10.703000     91.141998     89.476997
   400  1  1      8.206000     93.044998     87.146004
   401  1  1      7.917000     89.834999     85.085999
   402  1  1      7.238000     87.705002     88.040001
   403  1  1      4.654000     90.162003     89.430000
   404  1  1      2.825000     90.480003     86.087997
   405  1  1      2.808000     86.723000     85.549004
   406  1  1      1.779000     85.981003     89.125999
   407  1  1     -1.037000     88.546997     88.967003
   408  1  1     -2.449000     87.834999     85.443001
   409  1  1     -0.862000     84.533997     84.205002
   410  1  1      1.867000     84.195000     81.594002
   411  1  1      0.326000     84.014000     78.116997
   412  1  1     -1.717000     87.254997     78.205002
   413  1  1      1.420000     88.916000     79.402000
   414  1  1      3.518000     87.112999     76.586998
   415  1  1      0.844000     88.316002     74.026001
   416  1  1      0.870000     91.735001     75.707001
   417  1  1      4.664000     91.926003     75.031998
   418  1  1      4.453000     91.549004     71.218002
   419  1  1      1.402000     93.675003     71.107002
   420  1  1      2.771000     96.599998     73.247002
   421  1  1      5.835000     96.152000     70.916000
   422  1  1      3.871000     96.352997     67.706001
   423  1  1      1.967000     99.362999     69.092003
   424  1  1      5.277000    101.164001     70.000000
   425  1  1      7.011000    100.070000     66.651001
   426  1  1      3.904000    101.309998     64.901001
   427  1  1      4.962000    104.863998     64.227997
   428  1  1      3.741000    107.586998     66.628998
   429  1  1      1.067000    109.339996     64.364998
   430  1  1     -0.120000    106.160004     62.695000
   431  1  1     -0.836000    104.528999     66.099998
   432  1  1     -4.199000    103.146004     67.260002
   433  1  1     -5.493000    105.537003     70.028000
   434  1  1     -5.443000    103.037003     72.802002
   435  1  1     -2.455000    100.803001     73.435997
   436  1  1     -3.051000     96.891998     73.758003
   437  1  1     -3.012000     95.650002     77.341003
   438  1  1     -3.169000     92.124001     79.176003
   439  1  1     -6.715000     90.646004     79.894997
   440  1  1     -8.107000     91.700996     83.359001
   441  1  1    -11.527000     90.293999     82.680000
   442  1  1    -11.471000     86.815002     84.449997
   443  1  1    -14.055000     85.617996     82.120003
   444  1  1    -15.986000     83.707001     84.824997
   445  1  1    -18.580999     84.688004     87.475998
   446  1  1    -16.559000     83.500000     90.539001
   447  1  1    -14.017000     85.570999     92.681999
   448  1  1      8.274000     91.652000    105.752998
   449  1  1     11.789000     91.874001    104.411003
   450  1  1     12.766000     88.273003    103.295998
   451  1  1     14.250000     85.477997    105.469002
   452  1  1     16.039000     83.345001    102.836998
   453  1  1     15.319000     79.703003    103.874001
   454  1  1     11.936000     80.197998    105.458000
   455  1  1     10.080000     78.657997    102.472000
   456  1  1     12.624000     75.913002    102.306000
   457  1  1     12.184000     74.664001    105.899002
   458  1  1     15.386000     76.204002    107.386002
   459  1  1     17.118999     79.025002    109.281998
   460  1  1     19.972000     81.517998    108.779999
   461  1  1     20.677999     80.959999    112.455002
   462  1  1     21.836000     77.315002    111.745003
   463  1  1     23.344000     78.087997    108.334999
   464  1  1     25.584000     80.943001    109.544998
   465  1  1     26.833000     78.958000    112.670998
   466  1  1     28.783001     76.613998    110.365997
   467  1  1     32.564999     77.279999    109.566002
   468  1  1     33.605999     78.723000    106.205002
   469  1  1     35.945000     75.681999    105.407997
   470  1  1     33.046001     73.274002    105.831001
   471  1  1     31.480000     74.791000    102.630997
   472  1  1     33.043999     74.070999     99.249001
   473  1  1     34.035000     77.156998     97.092003
   474  1  1     31.533001     78.958000     94.823997
   475  1  1     33.713001     77.507004     92.011002
   476  1  1     32.889999     73.785004     92.925003
   477  1  1     29.096001     74.643997     93.361000
   478  1  1     29.242001     76.249001     89.913002
   479  1  1     31.010000     73.161003     88.575996
   480  1  1     28.436001     70.781998     90.200996
   481  1  1     25.579000     72.820999     88.693001
   482  1  1     27.093000     72.611000     85.170998
   483  1  1     28.176001     68.922997     85.611000
   484  1  1     25.017000     67.113998     87.029999
   485  1  1     22.162001     69.545998     86.537003
   486  1  1     22.862000     71.236000     83.228996
   487  1  1     19.749001     69.683998     81.689003
   488  1  1     17.438999     70.938004     84.400002
   489  1  1     19.105000     74.453003     84.460999
   490  1  1     18.589001     74.753998     80.560997
   491  1  1     15.010000     73.290001     81.075996
   492  1  1     11.872000     74.836998     79.155998
   493  1  1      9.850000     73.478996     81.996002
   494  1  1      9.616000     73.851997     85.838997
   495  1  1     11.624000     71.272003     87.961998
   496  1  1     11.841000     72.190002     91.716003
   497  1  1     12.074000     75.278999     93.795998
   498  1  1     15.722000     74.129997     94.512001
   499  1  1     16.533001     74.138000     90.766998
   500  1  1     14.931000     77.601997     90.466003
   501  1  1     16.893999     78.977997     93.492996
   502  1  1     19.919001     77.513000     91.836998
   503  1  1     19.184000     79.447998     88.764999
   504  1  1     18.452000     82.637001     90.738998
   505  1  1     21.511000     82.620003     92.973000
   506  1  1     24.033001     82.132004     90.051003
   507  1  1     22.319000     85.253998     88.365997
   508  1  1     22.742001     86.876999     91.783997
   509  1  1     26.480000     86.139999     91.996002
   510  1  1     27.028999     87.150002     88.443001
   511  1  1     25.735001     90.671997     88.727997
   512  1  1     27.674000     90.844002     92.077003
   513  1  1     30.922001     89.921997     90.350998
   514  1  1     30.295000     92.372002     87.412003
   515  1  1     29.587000     95.237999     89.911003
   516  1  1     32.856998     94.442001     91.917999
   517  1  1     34.743999     94.218002     88.681000
   518  1  1     33.374001     97.431000     87.204002
   519  1  1     34.209000     99.205002     90.558998
   520  1  1     37.625999     97.599998     90.615997
   521  1  1     38.096001     98.730003     87.028000
   522  1  1     37.297001    102.343002     87.968002
   523  1  1     39.800999    102.539001     90.820000
   524  1  1     43.478001    102.772003     90.025002
   525  1  1     44.584000    101.453003     93.393997
   526  1  1     45.337002     97.530998     93.440002
   527  1  1     44.742001     97.406998     97.273003
   528  1  1     41.342999     99.136002     96.972000
   529  1  1     40.382999     96.391998     94.252998
   530  1  1     41.694000     93.666000     96.666000
   531  1  1     39.441002     95.376999     99.351997
   532  1  1     36.269001     95.272003     97.162003
   533  1  1     36.943001     91.834999     95.876999
   534  1  1     37.719002     90.307999     99.271004
   535  1  1     34.373001     91.793999    100.561996
   536  1  1     32.639999     89.912003     97.665001
   537  1  1     34.418999     86.533997     98.448997
   538  1  1     33.966999     86.889999    102.306999
   539  1  1     31.243000     89.242996    103.711998
   540  1  1     28.886000     88.649002    100.749001
   541  1  1     30.350000     85.357002     99.445000
   542  1  1     30.091000     83.292999    102.552002
   543  1  1     26.287001     83.711998    102.166000
   544  1  1     26.447001     82.420998     98.527000
   545  1  1     28.437000     79.372002     99.617996
   546  1  1     25.610001     78.628998    102.170998
   547  1  1     22.895000     79.374001     99.670998
   548  1  1     24.266001     77.495003     96.626999
   549  1  1     25.388000     74.535004     98.894997
   550  1  1     21.937000     74.239998    100.583000
   551  1  1     20.131001     74.098999     97.107002
   552  1  1     22.760000     71.922997     95.440002
   553  1  1     22.826000     69.541000     98.251999
   554  1  1     19.014000     69.190002     98.446999
   555  1  1     19.013000     68.415001     94.717003
   556  1  1     21.830000     65.737000     95.246002
   557  1  1     20.660999     64.279999     98.505997
   558  1  1     17.049999     65.356003     99.278999
   559  1  1     16.179001     68.297997    101.668999
   560  1  1     15.267000     66.217003    104.821999
   561  1  1     18.416000     64.033997    104.519997
   562  1  1     20.625000     67.240997    104.421997
   563  1  1     19.056999     69.004997    107.404999
   564  1  1     19.289000     65.866997    109.638000
   565  1  1     22.969999     65.815002    108.623001
   566  1  1     23.230000     69.443001    109.666000
   567  1  1     21.315001     68.820000    112.972000
   568  1  1     23.674999     65.924004    113.898003
   569  1  1     26.697001     68.193001    112.884003
   570  1  1     25.347000     70.985001    115.112999
   571  1  1     25.271000     69.089996    118.481003
   572  1  1     29.003000     68.154999    117.802002
   573  1  1     30.063000     71.848999    117.306000
   574  1  1     27.914000     72.797997    120.348000
   575  1  1     29.802999     70.025002    122.334000
   576  1  1     33.192001     71.457001    123.677002
   577  1  1     36.220001     70.011002    121.794998
   578  1  1     37.495998     67.461998    124.365997
   579  1  1     34.042999     66.182999    125.067001
   580  1  1     33.337002     65.056000    121.517998
   581  1  1     34.726002     62.424000    118.920998
   582  1  1     37.745998     63.633999    116.740997
   583  1  1     36.084000     63.042999    113.289001
   584  1  1     33.388000     65.489998    112.023003
   585  1  1     30.179001     63.942001    110.755997
   586  1  1     30.627001     62.828999    107.079002
   587  1  1     28.148001     63.571999    104.239998
   588  1  1     25.469000     60.897999    103.577003
   589  1  1     25.320000     58.479000    100.569000
   590  1  1     23.542999     59.245998     97.289001
   591  1  1     19.854000     58.259998     96.902000
   592  1  1     19.212999     55.067001     94.779999
   593  1  1     19.278000     55.955002     91.070999
   594  1  1     21.135000     58.958000     89.949997
   595  1  1     21.674999     58.276001     86.221001
   596  1  1     19.596001     55.808998     84.029999
   597  1  1    100.313004     98.028999    -20.237000
   598  1  1    102.676003     95.074997    -19.834999
   599  1  1    102.344002     92.370003    -17.105000
   600  1  1    104.748001     92.301003    -14.135000
   601  1  1    107.714996     89.866997    -14.205000
   602  1  1    106.379997     86.814003    -12.333000
   603  1  1    102.470001     87.073997    -11.967000
   604  1  1    101.582001     84.082001    -14.133000
   605  1  1    103.311996     82.002998    -11.452000
   606  1  1    101.384003     83.624001     -8.688000
   607  1  1    103.774002     86.147003     -7.421000
   608  1  1    103.856003     89.962997     -7.290000
   609  1  1    107.259003     91.556000     -6.969000
   610  1  1    106.072998     93.528999     -3.979000
   611  1  1    105.617996     90.254997     -1.963000
   612  1  1    109.156998     89.121002     -3.124000
   613  1  1    110.614998     92.504997     -1.970000
   614  1  1    108.542000     92.674004      1.226000
   615  1  1    111.695000     90.991997      2.478000
   616  1  1    114.992996     92.975998      2.283000
   617  1  1    117.494003     92.695999     -0.622000
   618  1  1    119.849998     90.364998      1.322000
   619  1  1    117.246002     87.671997      1.968000
   620  1  1    117.954002     85.407997     -1.099000
   621  1  1    121.039001     83.279999     -1.646000
   622  1  1    123.545998     84.616997     -4.225000
   623  1  1    123.176003     83.709999     -7.996000
   624  1  1    126.053001     81.179001     -7.596000
   625  1  1    123.962997     79.350998     -4.910000
   626  1  1    120.691002     79.102997     -6.830000
   627  1  1    122.441002     77.837997     -9.973000
   628  1  1    123.981003     75.196999     -7.758000
   629  1  1    120.360001     74.494003     -6.251000
   630  1  1    118.876999     74.072998     -9.730000
   631  1  1    121.484001     71.453003    -10.749000
   632  1  1    121.428001     69.778000     -7.452000
   633  1  1    117.818001     68.827003     -7.164000
   634  1  1    116.405998     69.174004    -10.743000
   635  1  1    119.213997     68.403999    -13.331000
   636  1  1    117.806999     65.473000    -15.293000
   637  1  1    114.347000     67.114998    -15.456000
   638  1  1    115.901001     70.529999    -16.573000
   639  1  1    117.888000     68.723999    -19.304001
   640  1  1    114.943001     66.293999    -20.212999
   641  1  1    113.070999     66.970001    -23.577000
   642  1  1    109.860001     66.558998    -21.563999
   643  1  1    107.616997     69.681000    -20.783001
   644  1  1    107.575996     69.111000    -17.007999
   645  1  1    105.991997     72.037003    -14.944000
   646  1  1    105.914001     75.635002    -16.371000
   647  1  1    108.321999     76.469002    -13.493000
   648  1  1    110.885002     74.259003    -15.250000
   649  1  1    110.205002     76.049004    -18.594999
   650  1  1    110.809998     79.370003    -16.948999
   651  1  1    114.032997     78.128998    -15.121000
   652  1  1    115.294998     76.512001    -18.440001
   653  1  1    114.975998     79.912003    -19.982000
   654  1  1    116.322998     81.781998    -16.955000
   655  1  1    119.628998     79.889000    -16.757999
   656  1  1    120.277000     80.681999    -20.521999
   657  1  1    119.295998     84.351997    -19.921000
   658  1  1    121.905998     84.490997    -17.058001
   659  1  1    124.374001     83.235001    -19.642000
   660  1  1    123.766998     86.065002    -22.101999
   661  1  1    123.969002     88.836998    -19.427000
   662  1  1    127.389000     87.377998    -18.341999
   663  1  1    128.488998     87.105003    -21.974001
   664  1  1    127.360001     90.616997    -22.746000
   665  1  1    129.076996     91.858002    -19.518000
   666  1  1    132.414001     90.264000    -20.566000
   667  1  1    132.264999     91.566002    -24.158001
   668  1  1    132.100006     95.071999    -22.708000
   669  1  1    135.320007     94.500999    -20.878000
   670  1  1    137.231003     93.265999    -23.940001
   671  1  1    135.761002     95.666000    -26.545000
   672  1  1    136.098999     99.083000    -24.565001
   673  1  1    139.578003    100.345001    -23.864000
   674  1  1    138.557999    103.776001    -22.561001
   675  1  1    136.897995    103.134003    -19.073000
   676  1  1    139.311005    103.134003    -16.243000
   677  1  1    137.382996    100.190002    -14.763000
   678  1  1    137.003006     96.996002    -16.726999
   679  1  1    134.985992     95.415001    -13.897000
   680  1  1    132.195007     97.958000    -13.566000
   681  1  1    129.542007     96.208000    -15.707000
   682  1  1    130.468002     92.689003    -14.385000
   683  1  1    129.957001     94.153999    -10.775000
   684  1  1    126.681999     95.775002    -11.880000
   685  1  1    125.531998     92.353996    -13.180000
   686  1  1    126.473000     90.332001    -10.016000
   687  1  1    124.894997     92.901001     -7.724000
   688  1  1    122.311996     95.147003     -9.360000
   689  1  1    121.125000     92.862999    -12.328000
   690  1  1    121.556000     90.010002     -9.888000
   691  1  1    118.956001     90.878998     -7.249000
   692  1  1    116.040001     90.259003     -9.554000
   693  1  1    117.714996     87.055000    -10.793000
   694  1  1    117.834999     85.926003     -7.124000
   695  1  1    113.991997     86.498001     -6.784000
   696  1  1    113.323997     84.526001    -10.022000
   697  1  1    115.610001     81.511002     -9.465000
   698  1  1    114.764000     81.297997     -5.641000
   699  1  1    111.032997     81.505997     -6.305000
   700  1  1    110.694000     79.130997     -9.269000
   701  1  1    112.679001     76.533997     -7.431000
   702  1  1    110.660004     77.115997     -4.284000
   703  1  1    107.261002     76.754997     -5.920000
   704  1  1    108.309998     73.542999     -7.625000
   705  1  1    109.925003     72.233002     -4.325000
   706  1  1    107.653000     73.412003     -1.523000
   707  1  1    104.272003     74.232002     -3.222000
   708  1  1    102.915001     77.575996     -4.373000
   709  1  1    100.542000     78.320999     -1.375000
   710  1  1    103.369003     77.438004      1.058000
   711  1  1    105.763000     79.803001     -0.551000
   712  1  1    103.279999     82.678001     -0.504000
   713  1  1    102.633003     81.750000      3.158000
   714  1  1    106.254997     81.889000      4.197000
   715  1  1    106.588997     85.347000      2.383000
   716  1  1    103.931000     87.147003      4.389000
   717  1  1    104.551003     85.315002      7.732000
   718  1  1    108.337997     85.259003      7.953000
   719  1  1    108.477997     88.814003      6.548000
   720  1  1    106.525002     89.945999      9.708000
   721  1  1    109.102997     88.172997     11.868000
   722  1  1    112.066002     89.894997      9.989000
   723  1  1    110.321999     93.366997     10.297000
   724  1  1    109.586998     92.711998     14.001000
   725  1  1    112.269997     93.750000     16.681000
   726  1  1    114.281998     90.707001     18.202999
   727  1  1    113.241997     91.245003     22.030001
   728  1  1    109.528000     91.115997     20.830999
   729  1  1    109.553001     88.018997     18.488001
   730  1  1    110.154999     84.532997     19.893999
   731  1  1    113.043999     82.450996     18.552000
   732  1  1    110.599998     80.042000     16.782000
   733  1  1    109.841003     80.889000     13.095000
   734  1  1    107.948997     79.739998     10.010000
   735  1  1    110.241997     77.258003      8.104000
   736  1  1    110.587997     75.945999      4.519000
   737  1  1    110.630997     72.012001      4.772000
   738  1  1    109.152000     68.809998      3.094000
   739  1  1    109.811996     66.647003      6.178000
   740  1  1    106.119003     67.417000      7.507000
   741  1  1    104.779999     65.457001      4.464000
   742  1  1    107.399002     62.598999      4.992000
   743  1  1    107.858002     62.012001      8.883000
   744  1  1    106.655998     63.099998     12.330000
   745  1  1    107.352997     66.820000     13.512000
   746  1  1    124.384003     73.773003    -17.594000
   747  1  1    123.867996     75.213997    -21.157000
   748  1  1    120.642998     73.514999    -22.091000
   749  1  1    119.584000     72.467003    -25.652000
   750  1  1    116.908997     75.195000    -26.174999
   751  1  1    113.990997     73.748001    -28.188999
   752  1  1    114.185997     70.124001    -26.809000
   753  1  1    111.290001     70.736000    -24.292999
   754  1  1    109.115997     72.176003    -27.153000
   755  1  1    110.190002     69.198997    -29.245001
   756  1  1    112.819000     70.429001    -31.632000
   757  1  1    116.583000     70.491997    -32.154999
   758  1  1    119.119003     73.223000    -33.146999
   759  1  1    119.694000     71.286003    -36.339001
   760  1  1    116.199997     71.928001    -37.521000
   761  1  1    116.783997     75.776001    -37.144001
   762  1  1    120.249001     75.393997    -38.637001
   763  1  1    118.749001     73.792999    -41.695999
   764  1  1    116.945999     77.125000    -42.544998
   765  1  1    118.904999     79.950996    -44.243999
   766  1  1    120.372002     82.136002    -41.388000
   767  1  1    118.865997     85.293999    -42.810001
   768  1  1    115.408997     83.561996    -43.148998
   769  1  1    114.019997     84.536003    -39.703999
   770  1  1    112.413002     88.155998    -39.279999
   771  1  1    113.842003     90.910004    -37.013000
   772  1  1    113.441002     90.612999    -33.243000
   773  1  1    111.818001     94.083000    -33.438000
   774  1  1    109.294998     92.773003    -36.015999
   775  1  1    108.504997     89.718002    -33.770000
   776  1  1    107.948997     91.960999    -30.702999
   777  1  1    105.500999     93.779999    -32.877998
   778  1  1    103.983002     90.415001    -34.243000
   779  1  1    103.332001     89.366997    -30.681000
   780  1  1    101.694000     92.620003    -29.945000
   781  1  1     99.444000     92.428001    -32.937000
   782  1  1     98.416000     88.749001    -32.504002
   783  1  1     98.612999     87.822998    -28.834000
   784  1  1     98.377998     91.082001    -26.910999
   785  1  1     96.213997     89.434998    -24.146000
   786  1  1     99.075996     87.052002    -23.201000
   787  1  1    101.399002     90.113998    -23.257000
   788  1  1     99.325996     92.507004    -21.034000
   789  1  1     97.734001     89.820000    -18.782000
   790  1  1     99.177002     86.638000    -17.142000
   791  1  1     96.710999     84.761002    -19.684000
   792  1  1     97.283997     80.957001    -20.047001
   793  1  1     99.949997     78.667999    -18.483000
   794  1  1     99.938004     76.463997    -21.677000
   795  1  1    103.567001     75.764999    -22.974001
   796  1  1    103.981003     78.422997    -25.497999
   797  1  1    102.148003     81.310997    -23.688999
   798  1  1    104.237999     80.813004    -20.738001
   799  1  1    107.400002     80.447998    -22.913000
   800  1  1    106.700996     83.726997    -24.990000
   801  1  1    106.702003     85.994003    -21.868000
   802  1  1    109.930000     84.440002    -20.677000
   803  1  1    111.536003     84.991997    -24.080999
   804  1  1    110.498001     88.699997    -24.080000
   805  1  1    111.870003     89.044998    -20.597000
   806  1  1    115.214996     87.475998    -21.709000
   807  1  1    115.461998     90.000999    -24.462000
   808  1  1    114.202003     92.860001    -22.108000
   809  1  1    116.944000     92.253998    -19.555000
   810  1  1    119.542999     92.203003    -22.441000
   811  1  1    118.097000     95.536003    -23.688999
   812  1  1    117.994003     96.988998    -20.108999
   813  1  1    121.674004     96.192001    -19.480000
   814  1  1    122.781998     97.154999    -23.134001
   815  1  1    120.834000    100.480003    -22.804001
   816  1  1    122.433998    100.751999    -19.306999
   817  1  1    126.026001    100.428001    -20.761999
   818  1  1    124.606003    102.668999    -23.402000
   819  1  1    123.546997    105.447998    -21.105000
   820  1  1    125.986000    105.119003    -18.211000
   821  1  1    129.285995    104.889999    -19.966999
   822  1  1    130.371002    108.278999    -21.708000
   823  1  1    133.973007    107.366997    -22.236000
   824  1  1    133.332001    105.307999    -25.419001
   825  1  1    133.044998    107.467003    -28.469999
   826  1  1    130.091995    105.527000    -29.879000
   827  1  1    127.455002    104.431000    -27.358000
   828  1  1    125.260002    102.279999    -29.636000
   829  1  1    128.029999     99.498001    -29.910000
   830  1  1    126.666000     97.142998    -27.207001
   831  1  1    123.116997     97.592003    -28.389000
   832  1  1    124.268997     96.940002    -32.007000
   833  1  1    125.961998     93.699997    -30.625000
   834  1  1    122.578003     92.401001    -29.191999
   835  1  1    120.660004     93.125000    -32.431999
   836  1  1    123.403000     91.271004    -34.407001
   837  1  1    125.244003     88.360001    -32.849998
   838  1  1    122.941002     87.623001    -29.920000
   839  1  1    119.795998     88.481003    -31.757000
   840  1  1    120.063004     85.688004    -34.213001
   841  1  1    118.665001     83.214996    -31.528000
   842  1  1    115.839996     85.612999    -30.474001
   843  1  1    114.671997     85.688004    -34.091000
   844  1  1    114.681000     81.867996    -34.011002
   845  1  1    113.074997     81.815002    -30.590000
   846  1  1    110.333000     84.459999    -30.788000
   847  1  1    109.166000     83.314003    -34.254002
   848  1  1    108.793999     79.781998    -33.130001
   849  1  1    106.675003     80.677002    -30.165001
   850  1  1    104.624001     83.108002    -32.179001
   851  1  1    104.128998     80.550003    -34.953999
   852  1  1    103.374001     77.676003    -32.487999
   853  1  1    100.399002     79.834999    -31.115999
   854  1  1     99.427002     80.568001    -34.707001
   855  1  1     99.692001     77.197998    -36.626999
   856  1  1    100.478996     74.679001    -33.724998
   857  1  1    103.973999     73.377998    -33.448002
   858  1  1    103.582001     70.196999    -35.652000
   859  1  1    102.689003     72.133003    -38.904999
   860  1  1    105.570999     74.559998    -38.140999
   861  1  1    108.154999     71.682999    -37.674000
   862  1  1    106.738998     70.095001    -40.935001
   863  1  1    107.139999     73.607002    -42.491001
   864  1  1    110.710999     74.167999    -41.188000
   865  1  1    111.976997     70.834000    -42.374001
   866  1  1    110.264000     70.878998    -45.736000
   867  1  1    111.988998     74.147003    -46.375000
   868  1  1    115.557999     73.067001    -45.709000
   869  1  1    115.358002     70.495003    -48.424000
   870  1  1    113.950996     73.092003    -50.990002
   871  1  1    116.762001     75.448997    -50.671001
   872  1  1    119.387001     72.586998    -50.708000
   873  1  1    117.851997     71.226997    -53.992001
   874  1  1    119.316002     73.269997    -56.911999
   875  1  1    117.040001     76.042999    -58.519001
   876  1  1    116.143997     73.807999    -61.479000
   877  1  1    115.292999     70.702003    -59.648998
   878  1  1    113.197998     72.396004    -56.812000
   879  1  1    109.504997     73.080002    -57.702000
   880  1  1    109.511002     76.732002    -58.578999
   881  1  1    107.342003     78.225998    -55.844002
   882  1  1    108.676003     77.980003    -52.250999
   883  1  1    106.963997     76.027000    -49.335999
   884  1  1    104.752998     78.539001    -47.493000
   885  1  1    102.820999     78.403000    -44.298000
   886  1  1     99.735001     80.667999    -44.228001
   887  1  1     96.591003     78.679001    -43.752998
   888  1  1     95.165001     79.582001    -40.258999
   889  1  1     94.028999     76.158997    -38.700001
   890  1  1     90.279999     76.633003    -38.453999
   891  1  1     89.925003     78.338997    -42.050999
   892  1  1     87.721001     76.581001    -44.585999
   893  1  1     89.767998     77.717003    -47.610001
   894  1  1     92.600998     75.408997    -48.691002

Bonds

       1       1     124     127
       2       2     124     128
       3       3     123     124
       4       4     124     126
       5       5     121     124
       6       6     122     124
       7       7     120     124
       8       8     132     134
       9       9     133     134
      10      10     134     135
      11      11     134     136
      12      12     134     137
      13      13     125     133
      14      14     132     133
      15      15     125     127
      16      16     125     128
      17      17     128     132
      18      18     129     132
      19      19     128     133
      20      20     129     133
      21      21     131     132
      22      22     131     133
      23      23     125     137
      24      24     130     132
      25      25     130     133
      26      26     125     126
      27      27     124     125
      28      28     133     135
      29      29     121     125
      30      30     122     125
      31      31     125     138
      32      32     123     125
      33      33     127     128
      34      34     127     129
      35      35     128     129
      36      36     128     130
      37      37     129     130
      38      38     126     127
      39      39     126     128
      40      40     126     129
      41      41     123     127
      42      42     130     131
      43      43     129     131
      44      44     116     117
      45      45     117     120
      46      46     117     118
      47      47     117     121
      48      48     114     117
      49      49     115     117
      50      50     117     119
      51      51     113     117
      52      52     116     120
      53      53     116     119
      54      54     119     120
      55      55     120     123
      56      56     114     116
      57      57     115     116
      58      58     112     116
      59      59     113     116
      60      60      12      13
      61      61      12      14
      62      62      12      15
      63      63      13      14
      64      64      13      15
      65      65      14      15
      66      66      12      16
      67      67      13      16
      68      68      13      17
      69      49      14      16
      70      69      14      17
      71      70      14      18
      72      71      15      16
      73      72      15      17
      74      73      15      18
      75      74       6      12
      76      75       6      13
      77      76      11      12
      78      77      11      13
      79      78      11      15
      80      79       7      12
      81      80      10      12
      82      81     118     121
      83      82     118     122
      84      83     118     138
      85      84     121     122
      86      85     121     138
      87      86     122     138
      88      87     118     119
      89      88     119     121
      90      89     121     123
      91      90     119     122
      92      91     122     123
      93      92     122     137
      94      93     137     138
      95      94     118     139
      96      95     118     140
      97      96     122     139
      98      97     138     139
      99      98     138     140
     100      99     122     126
     101     100     116     118
     102     101     118     120
     103     102     120     121
     104     103     120     122
     105     104     114     118
     106     105     115     118
     107     106      19     119
     108     107      19     123
     109     108     119     123
     110     109      16      19
     111     110      17      19
     112     111      18      19
     113     112      18     123
     114     113     123     126
     115     114      19      20
     116     115      15     119
     117     116      19      21
     118     117     115     119
     119     118      16      17
     120     119      16      18
     121     120      17      18
     122     121      17      20
     123     122      18      20
     124     123      16      99
     125     124      11      16
     126     125     135     136
     127     126     135     137
     128     127     136     137
     129     128     136     138
     130     129     137     139
     131     130      20      21
     132     131      20      22
     133     132      20      23
     134     133     295     298
     135     134     296     298
     136     135     297     298
     137     136     193     195
     138     137     194     195
     139     138     195     196
     140     139       8     195
     141     140     195     197
     142     141     190     193
     143     142     193     194
     144     143     188     190
     145     144     189     190
     146     145     190     191
     147     146     190     192
     148     147     189     193
     149     148     191     193
     150     149     192     193
     151     150     192     194
     152     151       8     193
     153     152       7     194
     154     153       8     194
     155     154     190     197
     156     155     190     201
     157     156     193     196
     158     157     194     196
     159     158     187     190
     160     159     188     189
     161     160     188     191
     162     161     188     192
     163     162     189     191
     164     163     189     192
     165     164     191     192
     166     165       3     191
     167     166       3     192
     168     167       4     192
     169     168     183     188
     170     169     184     188
     171     170     191     205
     172     171     191     201
     173     172     186     188
     174     173     187     188
     175     174     187     189
     176     175     187     191
     177     176     185     188
     178     177     112     113
     179     178     111     112
     180     179     112     114
     181     180     112     115
     182     181     111     113
     183     182     113     114
     184     183     113     115
     185     184     107     112
     186     185     110     112
     187     186       9      10
     188     187       7       9
     189     188       8       9
     190     189       7      10
     191     190       8      10
     192     191       9      11
     193     192      10      11
     194     193       6       9
     195     194       6      10
     196     195       7       8
     197     196       4       7
     198     197       5       7
     199     198       6       7
     200     199       6       8
     201     200       8     196
     202     201       2       3
     203     202       2       4
     204     203       3       4
     205     204       1       2
     206     205       1       3
     207     206       3     205
     208     207       3     209
     209     208       1     184
     210     209     143     144
     211     210     143     145
     212     211     144     145
     213     212     141     143
     214     213     145     147
     215     214     142     143
     216     215     142     144
     217     216     144     146
     218     217     145     146
     219     218     114     141
     220     219     141     142
     221     220     139     141
     222     221     140     141
     223     222     111     114
     224     223     111     115
     225     224     114     115
     226     225     114     140
     227     226     115     140
     228     227     106     111
     229     228     107     111
     230     229     108     111
     231     230     109     111
     232     231     110     111
     233     232     110     114
     234     233     106     115
     235     234     107     115
     236     235     110     115
     237     236       6      11
     238     237       7      11
     239     238       5       6
     240     239       6     100
     241     240       3       5
     242     241       4       5
     243     242       4       6
     244     243     140     142
     245     244     110     142
     246     245     139     140
     247     246      96      99
     248     247      95      96
     249     248      96      97
     250     249      96      98
     251     250      95      99
     252     251      97      99
     253     252      98      99
     254     253      93      96
     255     254      94      96
     256     255      99     102
     257     256      96     100
     258     257      99     100
     259     258      99     101
     260     259      99     103
     261     260      23      24
     262     261      21      23
     263     262      22      23
     264     263      21      24
     265     264      22      24
     266     265      23      25
     267     266      24      25
     268     267      24      26
     269     268      24      99
     270     269      24     102
     271     270      24      98
     272     271      21      22
     273     272      88      92
     274     273      89      92
     275     274      90      92
     276     275      91      92
     277     276      92      93
     278     277      92      94
     279     278      92      95
     280     279     295     296
     281     280     295     297
     282     281     296     297
     283     282     293     295
     284     283     294     295
     285     284     293     296
     286     285     294     296
     287     286     186     187
     288     287     185     186
     289     288     185     187
     290     289     182     186
     291     290     183     186
     292     291     184     186
     293     292     183     187
     294     293     184     187
     295     294     181     185
     296     295     182     185
     297     296     183     185
     298     297     184     185
     299     298     196     197
     300     299     196     198
     301     300      50     196
     302     301     197     198
     303     302     197     201
     304     303     198     201
     305     304     198     202
     306     305     201     202
     307     306     197     199
     308     307     198     199
     309     308     198     200
     310     309     199     201
     311     310     200     201
     312     311     201     204
     313     312     201     205
     314     313     201     253
     315     314     201     203
     316     315     180     181
     317     316     180     182
     318     317     180     183
     319     318     180     184
     320     319     181     182
     321     320     181     183
     322     321     181     184
     323     322     182     183
     324     323     182     184
     325     324     183     184
     326     325     179     180
     327     326     179     181
     328     327     179     182
     329     328     179     183
     330     329     178     180
     331     330     178     181
     332     331     178     182
     333     332     176     180
     334     333     177     180
     335     334     177     181
     336     335     146     148
     337     336     146     147
     338     337     147     148
     339     241     148     149
     340     338      50      51
     341     339      51     104
     342     340      48      50
     343     341      49      50
     344     342      50      52
     345     343      50      53
     346     344      49      51
     347     345      51      52
     348     346      51      53
     349     347      50      54
     350     348      51      54
     351     349      51      55
     352     350      50     199
     353     351     202     204
     354     352     202     205
     355     353     202     206
     356     354      54     202
     357     355     202     203
     358     356     199     202
     359     357     200     202
     360     358     204     205
     361     359     204     206
     362     360     204     208
     363      27     205     206
     364     361     205     208
     365     362     206     208
     366     363     205     209
     367     364     206     209
     368     365     206     210
     369     366     208     209
     370     367     208     210
     371     368     204     207
     372     369     204     250
     373     370     205     207
     374     371     206     207
     375     372     207     208
     376     373     208     212
     377     374     203     204
     378     375     203     205
     379     376      54     206
     380     377     203     206
     381     378     204     253
     382     379     204     254
     383     380     208     211
     384     381      57     206
     385     382      58     206
     386     383     200     204
     387     384     147     149
     388     385     106     107
     389     386     106     108
     390     387     106     109
     391     388     106     110
     392     389     107     108
     393     390     107     109
     394     391     107     110
     395     392     108     109
     396     393     108     110
     397     394     109     110
     398     395     103     106
     399     396     104     106
     400     397     105     106
     401     398     103     107
     402     399     104     107
     403     400     105     107
     404     401     104     108
     405     402     105     108
     406     403     105     109
     407     404     102     106
     408     405      51     108
     409     406     103     104
     410     407     103     105
     411     408     104     105
     412     395     100     103
     413     409     101     103
     414     410     100     104
     415     411     101     104
     416     412     101     105
     417     413     102     103
     418     414     102     104
     419     415     102     105
     420     416      55     104
     421     417     100     101
     422     418      97     100
     423     419      98     100
     424     420      97     101
     425     421      98     101
     426     422      58     101
     427     423      55     101
     428     424      30     101
     429     177     209     210
     430     425     209     212
     431     426     209     213
     432     427     210     212
     433     428     210     213
     434     429      61     210
     435     430     209     211
     436     431     210     211
     437     432     210     214
     438     433     207     209
     439     434     207     210
     440     435     212     213
     441     436     212     215
     442     437     213     215
     443     438     212     216
     444     439     213     216
     445     440     213     217
     446     441     215     216
     447     442     215     217
     448     443     211     212
     449     444     212     214
     450     445     211     213
     451     446     213     214
     452     447     211     215
     453     448     214     215
     454     449     215     219
     455     450     215     218
     456     451      98     102
     457     452      25     102
     458     453      30     102
     459     454     100     102
     460     455     101     102
     461     456      95      97
     462     457      95      98
     463     458      97      98
     464     459      93      95
     465     460      94      95
     466     461      93      97
     467     462      94      97
     468     463      94      98
     469     464      26      98
     470     465      90      95
     471     466      91      95
     472     467      27      98
     473     468      93      94
     474     469      88      93
     475     470      89      93
     476     471      90      93
     477     472      91      93
     478     473      89      94
     479     474      90      94
     480     475      91      94
     481     476      93     213
     482     477     216     217
     483     478     216     219
     484     479     216     220
     485     480     217     219
     486     481     217     220
     487     482     217     221
     488     483     216     218
     489     484     217     218
     490     485     214     216
     491     486     214     217
     492      97     219     220
     493     487     219     222
     494     488     219     223
     495     489     220     222
     496     311     220     223
     497     345     222     223
     498     490     219     221
     499     491     220     221
     500     492     220     224
     501     493     221     222
     502     494     222     224
     503     495     222     225
     504     496     221     223
     505     497     223     224
     506     498     223     225
     507     499     218     219
     508     500     218     220
     509     501     218     222
     510     502     222     234
     511     503     222     231
     512     504      25      26
     513     505      25      29
     514     506      25      27
     515     507      25      98
     516     508      25      30
     517     509      26      27
     518     510      26      28
     519     511      26      29
     520     512      26      30
     521     513      87      88
     522     514      87      89
     523     515      87      90
     524     516      87      91
     525     517      88      89
     526     518      88      90
     527     519      88      91
     528     520      89      90
     529     521      89      91
     530      60      90      91
     531     522      85      87
     532     523      85      88
     533     524      85      89
     534     525      86      87
     535     526      86      88
     536     527      86      89
     537     528      86      90
     538     529      84      87
     539     530      84      88
     540     531      69      89
     541     532      27      90
     542     533      83      87
     543     534      84      85
     544     535      69      85
     545     536      73      85
     546     537      81      85
     547     538      82      85
     548     539      83      85
     549     540      85      86
     550     541     221     224
     551     542     221     225
     552     543     224     225
     553     544     224     226
     554     545     225     226
     555     546     225     227
     556     547     225     230
     557     548     218     221
     558     549     225     231
     559     550     226     227
     560     551     226     228
     561     552      80      84
     562     553      81      84
     563     554      82      84
     564     555      83      84
     565     556      84      86
     566      54     292     293
     567     557     292     294
     568     558     293     294
     569     559     258     292
     570     560     259     292
     571     561     259     293
     572     562     290     292
     573     563     291     292
     574     564     291     293
     575     565     255     256
     576     566     255     257
     577     567     255     258
     578     568     255     259
     579     569     256     257
     580     570     256     258
     581     571     256     259
     582     572     257     258
     583     573     257     259
     584     574     258     259
     585     575     253     255
     586     576     254     255
     587     577     253     256
     588     578     254     256
     589     579     253     257
     590     580     254     257
     591     581     254     258
     592     582     255     264
     593     583     256     264
     594     584     259     263
     595     585     259     264
     596     586     251     255
     597     587     252     255
     598     588     252     256
     599     589     255     260
     600     590     256     260
     601     591     256     261
     602     592     257     260
     603     593     258     260
     604     594     259     260
     605     595     259     261
     606     372     199     200
     607     596     200     253
     608     597     199     203
     609     598     200     203
     610     599     200     256
     611     600     200     257
     612     601     253     254
     613     602     251     253
     614     603     179     254
     615     604     251     254
     616     605     250     253
     617     606     250     254
     618     607     252     253
     619     608     252     254
     620     609     249     253
     621     610     179     251
     622     611     178     179
     623     612     176     179
     624     613     173     251
     625     614     175     179
     626     615     177     179
     627     616     174     179
     628     617     247     251
     629     255     248     251
     630     618     251     252
     631     619     249     251
     632     620     175     178
     633     621     177     178
     634     622     174     178
     635     623      47      48
     636     624      47      49
     637     625      47      52
     638     626      47      53
     639     627      48      49
     640     628      48      52
     641     139      49      52
     642     629      49      53
     643     601      52      53
     644     630      52      54
     645       9      53      54
     646     631      52      55
     647     632      53      55
     648     633      44      47
     649     634      45      47
     650     635      46      47
     651     636      47     157
     652     637      46      48
     653     638      52      56
     654     639      53      56
     655     640      53      57
     656     641      41      52
     657     642      47     199
     658     643      53     199
     659     644      54     203
     660     645     203     207
     661     646      54      56
     662     647      54      57
     663     648      54      58
     664     649      57     203
     665     650     203     253
     666     651     207     250
     667     652     246     250
     668     653      61     207
     669     654     249     250
     670     655     207     211
     671     656     247     250
     672     657     248     250
     673     658     179     250
     674     659     250     251
     675     660     250     252
     676     661     176     246
     677     662     175     176
     678     663     176     177
     679     664     176     247
     680     665     244     246
     681     666     245     246
     682     667     246     247
     683     668     246     248
     684     669     242     246
     685     670     243     246
     686     671     176     178
     687     672     246     249
     688     673     174     176
     689     674     175     177
     690     675     175     247
     691     676     174     175
     692     677     173     175
     693     678      36      38
     694     679      37      38
     695     680      38      39
     696     681      38      40
     697     682      34      38
     698     683      38      41
     699     684      38      42
     700     685      35      38
     701     686      55      56
     702     687      55      57
     703     688      55      58
     704     689      55      59
     705     173      54      55
     706     690      56      57
     707     691      56      58
     708     692      56      59
     709     693      56      60
     710     694      57      58
     711     695      57      59
     712     696      57      60
     713     283      58      59
     714     697      58      60
     715     698      59      60
     716     699      57      61
     717     700      58      61
     718     701      59      61
     719     702      60      61
     720     703      60      64
     721     704      56     152
     722     705      60     152
     723     706      58      62
     724     707      59      62
     725     708      59      63
     726     709      60      62
     727     710      60      63
     728     711      42      56
     729     712      60     154
     730     713      61      64
     731     714      61      62
     732     715      61      63
     733     716      61      65
     734     717      62      64
     735     718      63      64
     736     719      64      65
     737     720      64      66
     738     721      64      68
     739     722      64     242
     740     723      64      67
     741     724     211     214
     742     725     214     218
     743     726     238     239
     744     727     234     238
     745     728     235     238
     746     729     235     239
     747     730     236     238
     748     731     238     240
     749     732     236     239
     750     733     239     240
     751     734     237     238
     752     735     237     239
     753     736     238     241
     754     737     238     242
     755     738     238     243
     756     739     239     241
     757     740     239     242
     758     741     239     243
     759     742     239     244
     760     743      36      37
     761     744      33      36
     762     745      34      36
     763     746      33      37
     764     747      34      37
     765     748      32      36
     766     749      35      36
     767     750      35      37
     768     751      36      39
     769     752      37      39
     770     753      30      31
     771     754      30      33
     772     755      30      34
     773     756      31      33
     774     757      31      34
     775     758      33      34
     776     759      29      30
     777     760      30      32
     778     761      29      31
     779     762      31      32
     780     763      29      33
     781     764      32      33
     782     765      32      34
     783     766      31      35
     784     767      33      35
     785     768      34      35
     786     769      27      30
     787     770      28      30
     788     771      27      31
     789     772      28      31
     790     773      34      39
     791     774      62      63
     792     775      62      65
     793     776      62      66
     794     777      63      65
     795     778      63      66
     796     779      65      66
     797     780      65      68
     798     781      66      68
     799     782      63      67
     800     783      65      67
     801     784      66      67
     802     785      65      69
     803     786      66      69
     804     787      65     214
     805     788      66      70
     806     789      68      69
     807     790      68      72
     808     791      68      70
     809     792      68      71
     810     793      67      68
     811     794     218     234
     812     795     218     235
     813     796     234     235
     814     797     231     234
     815     798     232     234
     816     799     231     235
     817     800     232     235
     818     801     233     234
     819     802     234     237
     820     803     233     235
     821     804     235     237
     822     805     230     234
     823     806     234     236
     824     807     235     236
     825     808     228     229
     826     809     228     231
     827     810     228     232
     828     811     229     231
     829     812     229     232
     830     813     231     232
     831     814     227     228
     832     815     228     230
     833     816     227     229
     834     817     229     230
     835     818     227     231
     836     819     230     231
     837     820     230     232
     838     405     229     233
     839     821     231     233
     840     822     232     233
     841     823     232     236
     842     824      29      32
     843     825      27      29
     844     822      28      29
     845     826      28      32
     846     827      32      35
     847     828      27      28
     848     829      69      86
     849     830      82      86
     850     831      83      86
     851     832      69      72
     852     833      69      73
     853     834      72      73
     854     835      72      76
     855     836      73      76
     856     837      73      82
     857     838      69      70
     858     839      69      71
     859     840      70      72
     860     841      71      72
     861     842      72      74
     862     843      70      73
     863     844      71      73
     864     845      73      74
     865     846      72      75
     866     847      73      75
     867     848      67      69
     868     849      76      78
     869     850      75      76
     870     851      76      77
     871     852      74      76
     872     853     227     230
     873     854     230     233
     874     855      79      80
     875     856      79      81
     876     857      79      82
     877     858      79      83
     878     859      80      81
     879     860      80      82
     880     861      80      83
     881     862      81      82
     882     863      81      83
     883     864      82      83
     884     865      78      79
     885     866      78      80
     886     867      78      81
     887     868      78      82
     888     869      77      79
     889     870      76      82
     890     871      77      78
     891     872     290     291
     892     873     289     290
     893     874     289     291
     894     875     288     290
     895     876     260     261
     896     877     260     262
     897     491     261     262
     898     878     260     263
     899     879     260     264
     900     880     261     263
     901     881     261     264
     902     882     262     263
     903     883     262     264
     904     884     261     265
     905     885     262     265
     906     886     262     266
     907     887     263     264
     908     888     263     265
     909     889     263     266
     910     890     263     267
     911     891     264     265
     912     892     264     266
     913     893     264     267
     914     894     264     268
     915     895     287     289
     916     896     288     289
     917     897     267     289
     918     898     158     159
     919     899     155     158
     920     900     156     158
     921     901     155     159
     922     902     156     159
     923     903     158     160
     924     904     159     160
     925     905     249     252
     926     906     248     252
     927     329     171     173
     928     907     172     173
     929     908     173     174
     930     909     173     247
     931     910     173     248
     932     911     170     173
     933     912     171     172
     934     913     171     174
     935     914     172     174
     936     915     170     171
     937     916     170     172
     938     917     169     171
     939     918     169     172
     940     919     168     172
     941     663      44      45
     942     920      44      46
     943     921      44     157
     944     922      45      46
     945     923      45     157
     946     924      46     157
     947     925      44     156
     948     926      45     156
     949     927     155     157
     950     928     156     157
     951     929      41      44
     952     930      42      44
     953     203      43      44
     954     931      43      45
     955     932      45     158
     956     156      45     159
     957     933     157     158
     958     934     157     159
     959     935     154     155
     960     936     154     156
     961     937     155     156
     962     938     152     154
     963     939     153     154
     964     940     153     155
     965     941     153     156
     966     942     155     161
     967     943     156     161
     968     944     155     162
     969     945     155     160
     970     946     156     160
     971     947     245     249
     972     948     247     249
     973     949     248     249
     974     950     244     245
     975     951     244     247
     976     952     244     248
     977     953     245     247
     978     954     245     248
     979     955     247     248
     980     956     170     244
     981     957     241     244
     982     958     242     244
     983     959     243     244
     984     960     242     245
     985     961     243     245
     986     962     243     247
     987     963     240     244
     988     964     174     247
     989     965     165     248
     990     966     169     170
     991      92     168     170
     992     967      39      40
     993     968      39      41
     994     969      39      42
     995     970      39      43
     996     971      40      41
     997     781      40      42
     998     972      40      43
     999     973      35      39
    1000     424      39     150
    1001     974      40      44
    1002     975      41      42
    1003     976      41      43
    1004     455      42      43
    1005     206      42     152
    1006     977      43     152
    1007     978      42     150
    1008     979      43     150
    1009     980     152     153
    1010     981     151     152
    1011     982     151     153
    1012     983     241     242
    1013     984     241     243
    1014     985     242     243
    1015     986     240     241
    1016     987     240     242
    1017     988     240     243
    1018     989     237     241
    1019     990     237     242
    1020     991     236     240
    1021     992     233     236
    1022     993     236     237
    1023     994     237     240
    1024     545     150     151
    1025     995     150     152
    1026     996      67      70
    1027     997      67      71
    1028     998     233     237
    1029     999      70      71
    1030    1000      70      74
    1031    1001      71      74
    1032    1002      71      75
    1033    1003      74      75
    1034    1004      75      77
    1035    1005     265     266
    1036    1006     265     267
    1037    1007     265     268
    1038    1008     265     269
    1039     497     266     267
    1040    1009     266     268
    1041    1010     266     269
    1042    1011     267     268
    1043     717     267     269
    1044    1012     268     269
    1045    1013     267     271
    1046    1014     268     271
    1047    1015     269     271
    1048    1016     266     270
    1049    1017     267     270
    1050    1018     268     270
    1051    1019     269     270
    1052    1020     269     273
    1053    1021     268     272
    1054    1022     269     272
    1055     606     271     287
    1056    1023     287     288
    1057    1024     271     286
    1058    1025     285     287
    1059    1026     286     287
    1060    1027     286     288
    1061    1028     271     273
    1062    1029     271     274
    1063    1030     271     272
    1064    1031     271     275
    1065    1032     270     271
    1066    1033     285     286
    1067    1034     283     285
    1068    1035     284     285
    1069    1036     284     286
    1070     838     160     161
    1071    1037     160     162
    1072    1038     166     168
    1073    1039     167     168
    1074    1040     168     169
    1075    1041     161     162
    1076     481     161     163
    1077    1042     161     164
    1078    1043     161     165
    1079    1044     162     163
    1080    1045     162     164
    1081    1046     162     165
    1082    1047     163     164
    1083    1048     163     165
    1084    1049     164     165
    1085    1050     162     166
    1086    1051     163     166
    1087    1052     163     167
    1088    1053     164     166
    1089    1054     164     167
    1090    1055     165     166
    1091    1056     165     167
    1092    1057     164     168
    1093    1058     165     168
    1094    1059     166     167
    1095    1060     167     169
    1096    1061     270     273
    1097    1062     270     274
    1098    1063     270     272
    1099     201     273     274
    1100    1064     272     273
    1101    1065     273     275
    1102    1066     273     276
    1103    1067     272     274
    1104    1068     274     275
    1105    1069     274     276
    1106    1070     274     282
    1107    1071     273     277
    1108    1072     274     277
    1109    1073     283     284
    1110    1074     281     283
    1111    1075     282     283
    1112    1076     282     284
    1113    1077     272     275
    1114    1078     272     276
    1115    1079     275     276
    1116     490     275     277
    1117    1080     276     277
    1118    1081     275     278
    1119    1082     276     278
    1120    1083     280     281
    1121    1084     280     282
    1122    1085     281     282
    1123    1086     278     280
    1124    1087     279     280
    1125    1088     278     281
    1126    1089     279     281
    1127    1090     278     282
    1128    1091     279     282
    1129    1092     277     278
    1130    1093     277     279
    1131    1094     277     281
    1132    1095     277     282
    1133    1096     278     279
    1134    1097     579     581
    1135    1098     580     581
    1136    1099     581     582
    1137    1100     581     583
    1138    1101     578     579
    1139    1102     578     580
    1140    1103     579     580
    1141    1104     576     578
    1142     980     577     578
    1143    1105     576     579
    1144     437     577     579
    1145    1106     576     580
    1146    1107     577     580
    1147    1108     572     580
    1148    1109     575     579
    1149    1110     575     580
    1150    1111     576     577
    1151    1112     574     576
    1152    1113     575     576
    1153    1114     575     577
    1154    1081     573     576
    1155    1115     582     583
    1156    1116     582     584
    1157    1117     583     584
    1158    1118     580     582
    1159    1119     583     585
    1160    1120     595     596
    1161    1121     594     596
    1162    1122     589     596
    1163    1123     584     585
    1164    1124     585     586
    1165    1125     565     585
    1166    1126     568     585
    1167    1127     569     585
    1168     895     585     587
    1169     287     571     572
    1170    1128     571     573
    1171    1129     572     573
    1172    1130     571     574
    1173    1131     571     575
    1174    1132     572     574
    1175    1133     572     575
    1176    1134     573     574
    1177    1135     573     575
    1178    1136     567     571
    1179    1061     568     571
    1180    1137     569     571
    1181    1138     570     571
    1182    1139     568     572
    1183    1140     569     572
    1184    1141     570     572
    1185    1031     569     573
    1186    1077     570     573
    1187    1142     574     575
    1188    1143     570     574
    1189    1144     593     595
    1190    1145     594     595
    1191    1146     584     586
    1192     680     586     587
    1193    1147     586     588
    1194     406     593     594
    1195     285     592     594
    1196     497     564     565
    1197    1148     564     566
    1198    1149     564     567
    1199    1150     564     568
    1200    1151     565     566
    1201    1152     565     567
    1202    1153     565     568
    1203    1154     565     569
    1204    1155     565     587
    1205    1156     560     564
    1206    1157     561     564
    1207    1158     562     564
    1208    1159     563     564
    1209    1160     561     565
    1210    1161     562     565
    1211    1162     563     565
    1212    1163     566     567
    1213    1164     566     568
    1214    1165     566     569
    1215    1166     566     570
    1216    1167     567     568
    1217    1168     567     569
    1218    1169     567     570
    1219    1170     568     569
    1220    1171     568     570
    1221    1172     569     570
    1222    1173     465     570
    1223    1174     462     566
    1224    1175     462     567
    1225    1176     466     566
    1226    1177     466     569
    1227    1178     466     570
    1228    1179     562     566
    1229    1180     563     566
    1230    1181     563     567
    1231    1182     465     466
    1232    1183     465     467
    1233    1184     461     465
    1234    1185     464     465
    1235    1186     462     465
    1236    1187     463     465
    1237    1188     589     593
    1238    1189     590     593
    1239     283     592     593
    1240    1190     591     593
    1241     319     588     589
    1242    1191     588     590
    1243    1192     589     590
    1244     873     587     588
    1245    1193     587     589
    1246    1194     556     590
    1247    1195     557     590
    1248    1196     590     592
    1249    1197     589     591
    1250    1198     590     591
    1251    1199     466     470
    1252    1200     467     470
    1253    1201     468     470
    1254    1202     470     471
    1255     912     469     470
    1256    1203     470     472
    1257    1204     466     467
    1258    1205     466     468
    1259    1206     467     468
    1260    1207     467     469
    1261    1208     468     469
    1262    1209     464     466
    1263    1210     464     468
    1264    1211     462     466
    1265    1212     463     466
    1266    1213     469     471
    1267    1214     471     472
    1268    1215     471     473
    1269    1216     471     545
    1270    1217     468     471
    1271    1218     471     546
    1272    1219     591     592
    1273    1220     557     591
    1274    1221     558     559
    1275    1222     558     560
    1276     878     558     561
    1277    1223     558     562
    1278    1224     556     558
    1279    1225     557     558
    1280    1226     553     558
    1281    1227     554     558
    1282    1228     555     558
    1283    1229     559     560
    1284    1230     559     561
    1285    1231     559     562
    1286    1232     559     563
    1287     458     560     561
    1288    1233     560     562
    1289    1234     560     563
    1290    1235     561     562
    1291    1236     561     563
    1292    1237     562     563
    1293    1238     554     559
    1294    1239     553     562
    1295    1240     554     562
    1296     177     462     463
    1297    1241     460     462
    1298    1242     461     462
    1299    1243     462     464
    1300    1244     460     463
    1301    1245     461     463
    1302    1246     463     464
    1303    1247     463     546
    1304    1248     458     462
    1305    1249     459     462
    1306    1043     459     463
    1307    1250     460     461
    1308    1251     460     464
    1309    1252     461     464
    1310    1253     453     460
    1311    1254     458     460
    1312    1255     459     460
    1313    1256     459     461
    1314    1257     556     557
    1315    1258     553     556
    1316     437     554     556
    1317    1259     553     557
    1318    1260     554     557
    1319    1204     555     556
    1320    1261     555     557
    1321    1262     552     556
    1322    1263     557     559
    1323     584     557     561
    1324    1264     557     562
    1325    1265     549     550
    1326    1266     549     553
    1327    1267     550     553
    1328    1268     550     554
    1329    1269     553     554
    1330    1270     546     549
    1331    1271     546     550
    1332    1272     477     549
    1333    1273     549     551
    1334    1274     549     552
    1335    1275     550     551
    1336     608     550     552
    1337    1276     551     553
    1338    1277     552     553
    1339    1278     498     554
    1340    1279     551     554
    1341     578     552     554
    1342    1280     545     549
    1343    1281     547     549
    1344    1282     547     550
    1345    1283     553     555
    1346    1284     554     555
    1347    1285     548     549
    1348    1286     548     550
    1349    1287     545     546
    1350     949     546     547
    1351    1288     542     546
    1352     954     543     546
    1353    1289     544     546
    1354     657     546     548
    1355    1290     480     484
    1356     201     483     484
    1357    1291     484     485
    1358     172     484     486
    1359    1292     481     484
    1360    1293     482     484
    1361    1294     477     480
    1362    1295     472     477
    1363    1296     473     477
    1364    1297     474     477
    1365    1298     476     477
    1366     409     477     479
    1367    1299     476     480
    1368    1300     479     480
    1369    1301     477     481
    1370    1302     480     481
    1371    1303     475     477
    1372    1304     477     548
    1373     325     477     478
    1374     316     478     480
    1375    1305     480     482
    1376    1306     472     473
    1377    1307     472     474
    1378    1308     472     545
    1379    1309     473     474
    1380    1310     473     545
    1381     637     474     545
    1382    1311     542     545
    1383    1312     473     475
    1384      14     474     475
    1385    1313     474     544
    1386     315     544     545
    1387    1314     545     548
    1388    1315     474     541
    1389    1316     541     545
    1390    1317     545     547
    1391    1318     474     478
    1392    1319     543     545
    1393    1320     539     542
    1394     963     538     542
    1395    1321     540     542
    1396    1322     541     542
    1397    1323     542     544
    1398    1225     542     543
    1399    1324     535     539
    1400    1325     539     540
    1401    1326     539     541
    1402     736     536     539
    1403    1327     479     483
    1404    1328     482     483
    1405    1329     480     483
    1406    1330     483     485
    1407    1331     483     486
    1408    1332     481     483
    1409    1333     476     479
    1410    1334     475     476
    1411    1335     475     479
    1412    1336     476     478
    1413     667     478     479
    1414    1337     472     476
    1415    1338     473     476
    1416    1339     474     476
    1417    1340     479     482
    1418    1341     479     481
    1419    1342     475     478
    1420     733     537     538
    1421    1343     533     537
    1422    1344     536     537
    1423    1345     536     538
    1424    1346     534     537
    1425    1347     535     537
    1426     991     534     538
    1427    1348     535     538
    1428    1349     537     539
    1429    1350     538     539
    1430    1351     537     540
    1431    1352     537     541
    1432    1353     538     540
    1433    1354     538     541
    1434    1355     453     457
    1435    1356     454     457
    1436    1357     457     458
    1437    1358     457     459
    1438    1359     343     457
    1439    1360     455     457
    1440    1361     453     456
    1441    1362     454     456
    1442    1363     456     458
    1443    1364     345     456
    1444    1365     455     456
    1445    1366     456     457
    1446    1367     452     453
    1447     936     452     454
    1448    1368     453     454
    1449    1369     453     458
    1450    1370     453     459
    1451    1371     454     458
    1452    1372     454     459
    1453      76     458     459
    1454    1373     451     452
    1455    1374     451     453
    1456    1375     451     454
    1457    1376     453     455
    1458    1377     454     455
    1459    1378     450     452
    1460    1379     343     454
    1461    1380     449     451
    1462    1381     450     451
    1463    1382     498     555
    1464    1383     551     555
    1465     580     552     555
    1466    1384     498     502
    1467    1385     498     551
    1468    1386     502     551
    1469    1387     551     552
    1470    1388     547     551
    1471    1389     481     552
    1472    1390     498     500
    1473    1391     498     501
    1474    1392     500     502
    1475    1393     501     502
    1476    1394     501     551
    1477    1395     502     548
    1478    1396     548     551
    1479    1127     548     552
    1480    1397     502     503
    1481    1398     498     499
    1482    1399     499     502
    1483    1400     497     498
    1484    1401     502     504
    1485    1402     502     505
    1486    1403     502     506
    1487     308     496     498
    1488    1404     543     547
    1489    1405     544     547
    1490    1406     547     548
    1491    1407     540     543
    1492    1408     541     543
    1493    1409     485     486
    1494    1410     481     485
    1495    1411     481     486
    1496    1412     482     485
    1497    1413     482     486
    1498    1414     485     487
    1499    1415     485     488
    1500    1416     485     489
    1501    1417     486     487
    1502    1418     486     488
    1503    1419     486     489
    1504    1420     486     490
    1505    1421     478     481
    1506    1422     544     548
    1507    1423     541     544
    1508     651     505     548
    1509    1424     543     544
    1510     939     540     541
    1511    1425     536     540
    1512    1426     536     541
    1513    1427     535     540
    1514    1428     478     482
    1515    1429     481     482
    1516    1430     482     489
    1517     728     533     536
    1518    1431     532     533
    1519    1432     533     534
    1520     804     533     535
    1521    1433     532     536
    1522    1434     534     536
    1523    1435     535     536
    1524    1436     513     533
    1525    1437     516     533
    1526    1438     530     533
    1527     143     531     533
    1528    1439     517     533
    1529    1440     520     533
    1530    1441     532     534
    1531    1442     532     535
    1532     993     534     535
    1533     421     530     532
    1534    1443     531     532
    1535    1444     530     534
    1536     992     531     534
    1537    1445     531     535
    1538    1446     519     532
    1539    1447     520     532
    1540    1448     516     532
    1541    1449     369     373
    1542    1450     370     373
    1543    1451     371     373
    1544    1452     372     373
    1545     850     373     374
    1546    1453     373     375
    1547    1454     528     529
    1548     916     528     530
    1549    1455     528     531
    1550    1456     529     530
    1551    1457     529     531
    1552    1458     530     531
    1553    1459     526     528
    1554    1460     526     529
    1555     503     520     529
    1556    1461     520     530
    1557    1246     527     528
    1558    1462     527     529
    1559     955     526     527
    1560    1463     374     526
    1561    1464     376     526
    1562    1465     525     526
    1563    1466     523     526
    1564    1467     524     526
    1565    1468     525     527
    1566     663     342     343
    1567    1469     342     344
    1568    1470     343     344
    1569     247     341     342
    1570    1471     341     343
    1571    1472     342     455
    1572    1473     343     455
    1573    1474     344     455
    1574    1475     339     342
    1575    1476     338     342
    1576    1477     340     342
    1577     637     344     346
    1578    1478     341     450
    1579    1479     337     341
    1580    1480     338     341
    1581    1481     339     341
    1582    1482     340     341
    1583    1483     496     497
    1584    1484     494     496
    1585     301     495     496
    1586    1485     496     499
    1587    1486     496     500
    1588    1487     345     351
    1589    1488     345     455
    1590    1489     497     500
    1591    1490     497     501
    1592    1491     345     347
    1593    1492     348     497
    1594    1493     343     345
    1595     635     344     345
    1596     623     345     346
    1597    1494     351     354
    1598    1495     354     450
    1599    1496     351     355
    1600    1497     354     355
    1601    1498     350     351
    1602    1499     340     354
    1603    1232     350     354
    1604    1500     354     358
    1605    1501     351     352
    1606    1502     351     353
    1607    1503     352     354
    1608    1504     353     354
    1609    1505     354     356
    1610    1506     347     351
    1611    1507     348     351
    1612    1508     349     351
    1613    1509     354     357
    1614    1510     449     450
    1615    1511     358     449
    1616     545     448     449
    1617     995     448     450
    1618    1512     494     495
    1619    1513     494     499
    1620    1514     495     499
    1621    1515     494     500
    1622    1516     495     500
    1623    1517     499     500
    1624     314     499     501
    1625    1518     488     494
    1626    1519     493     494
    1627     140     493     495
    1628     155     488     499
    1629    1520     499     503
    1630    1521     492     494
    1631    1522     306     495
    1632    1523     495     497
    1633    1524     497     499
    1634    1525     348     495
    1635    1526     500     501
    1636    1527     500     503
    1637    1528     501     503
    1638    1529     500     504
    1639    1530     501     504
    1640    1531     501     505
    1641    1532     352     501
    1642    1533     351     501
    1643    1534     348     500
    1644    1535     355     358
    1645    1536     355     504
    1646    1537     352     355
    1647    1538     353     355
    1648      54     355     356
    1649    1539     355     359
    1650     815     355     357
    1651    1540     358     361
    1652    1541     358     359
    1653    1542     358     362
    1654    1543     357     358
    1655     709     358     360
    1656    1544     356     358
    1657    1545     361     364
    1658     782     361     365
    1659     736     357     361
    1660    1546     360     361
    1661    1547     487     488
    1662    1548     487     489
    1663     147     487     491
    1664    1549     487     493
    1665     145     488     489
    1666    1550     488     491
    1667    1551     488     493
    1668    1552     489     491
    1669    1553     491     493
    1670    1554     489     503
    1671    1555     487     490
    1672    1556     488     490
    1673     195     489     490
    1674    1458     490     491
    1675    1557     488     492
    1676    1558     491     492
    1677    1559     492     493
    1678    1560     300     489
    1679    1561     300     491
    1680    1562     301     489
    1681    1563     301     491
    1682    1564     503     504
    1683    1565     503     505
    1684     556     503     506
    1685     363     503     507
    1686    1566     504     505
    1687    1567     504     506
    1688    1568     504     507
    1689    1569     504     508
    1690     372     505     506
    1691    1570     505     507
    1692    1571     505     508
    1693    1572     505     509
    1694    1573     506     507
    1695    1574     506     508
    1696    1575     506     509
    1697    1576     507     508
    1698    1577     507     509
    1699    1578     508     509
    1700    1579     359     508
    1701     373     506     510
    1702    1580     507     510
    1703     359     508     510
    1704     443     509     510
    1705    1581     507     511
    1706    1582     508     511
    1707    1583     508     512
    1708    1584     509     511
    1709    1585     509     512
    1710      29     509     513
    1711    1586     352     504
    1712    1587     359     362
    1713    1588     359     363
    1714    1589     362     363
    1715    1590     362     364
    1716     723     362     365
    1717    1591     362     366
    1718     224     363     364
    1719    1592     363     365
    1720     780     363     366
    1721    1593     363     512
    1722     298     359     360
    1723    1594     360     362
    1724    1595     360     363
    1725    1596     363     367
    1726    1597     359     361
    1727     718     361     362
    1728    1598     361     363
    1729    1599     357     359
    1730    1600     356     359
    1731    1601     364     365
    1732    1602     364     366
    1733     245     365     366
    1734    1603     364     368
    1735    1604     365     368
    1736    1605     366     368
    1737    1606     364     367
    1738    1607     365     367
    1739      10     366     367
    1740    1608     365     369
    1741    1609     366     369
    1742    1610     366     370
    1743     776     360     364
    1744    1325     368     369
    1745    1611     368     370
    1746    1612     368     371
    1747    1613     368     372
    1748    1614     368     384
    1749    1615     299     490
    1750    1616     299     300
    1751    1617     300     490
    1752    1618     299     301
    1753    1619     301     490
    1754    1620     490     492
    1755    1621     300     301
    1756    1622     300     302
    1757    1623     510     511
    1758    1624     510     512
    1759    1625     510     513
    1760    1626     510     514
    1761    1627     511     512
    1762    1628     511     513
    1763    1629     511     514
    1764    1630     511     515
    1765      97     512     513
    1766    1631     512     514
    1767    1632     512     515
    1768    1633     512     516
    1769    1634     513     514
    1770     442     513     515
    1771    1635     513     516
    1772    1124     514     515
    1773    1636     514     516
    1774    1637     515     516
    1775    1638     513     517
    1776    1639     514     517
    1777    1640     514     518
    1778     811     515     517
    1779    1256     515     518
    1780    1641     516     517
    1781    1642     516     518
    1782     482     515     519
    1783    1643     516     519
    1784    1644     516     520
    1785    1645     367     369
    1786    1646     367     370
    1787     833     367     371
    1788    1647     367     383
    1789    1648     367     384
    1790    1649     367     387
    1791    1650     367     368
    1792    1651     369     370
    1793    1652     369     371
    1794    1653     369     372
    1795    1654     370     371
    1796    1655     370     372
    1797      87     371     372
    1798    1656     370     374
    1799    1657     371     374
    1800    1658     372     374
    1801    1659     371     380
    1802    1660     371     381
    1803     912     517     518
    1804    1661     517     521
    1805    1662     518     521
    1806     853     517     519
    1807    1663     517     520
    1808    1664     518     519
    1809     489     518     520
    1810    1665     518     522
    1811    1666     519     521
    1812    1667     520     521
    1813    1668     521     522
    1814     498     521     523
    1815    1669     519     520
    1816    1670     519     522
    1817    1671     519     523
    1818    1672     520     522
    1819    1673     520     523
    1820    1674     522     523
    1821    1675     522     524
    1822    1676     523     524
    1823    1677     523     525
    1824    1678     374     376
    1825    1679     374     377
    1826    1680     376     377
    1827    1681     374     375
    1828    1682     375     376
    1829    1683     375     377
    1830    1684     376     525
    1831    1685     377     525
    1832    1686     377     379
    1833    1687     376     378
    1834    1688     377     378
    1835    1689     377     380
    1836    1011     524     525
    1837    1690     339     346
    1838    1691     346     347
    1839    1692     346     348
    1840     628     346     350
    1841    1693     336     339
    1842    1694     336     337
    1843    1695     336     338
    1844    1696     337     339
    1845    1697     338     339
    1846    1698     336     340
    1847     845     339     340
    1848     685     333     336
    1849    1699     335     336
    1850    1700     332     336
    1851    1701     334     336
    1852    1702     337     338
    1853    1703     333     337
    1854    1704     335     337
    1855    1705     332     337
    1856    1706     334     337
    1857    1707     347     348
    1858    1708     347     349
    1859    1709     348     349
    1860    1710     347     350
    1861     342     348     350
    1862    1711     349     350
    1863    1021     349     406
    1864    1712     348     352
    1865    1713     349     352
    1866    1714     349     353
    1867    1715     349     402
    1868    1716     340     350
    1869    1717     350     352
    1870     631     350     353
    1871     969     337     340
    1872     781     338     340
    1873    1718     330     333
    1874    1719     331     333
    1875    1720     332     333
    1876    1721     333     334
    1877    1722     329     333
    1878    1723     333     335
    1879    1724     304     307
    1880     187     305     307
    1881    1725     307     309
    1882    1726     307     308
    1883    1727     352     353
    1884     648     352     356
    1885    1728     353     356
    1886    1729     353     357
    1887    1650     356     357
    1888    1730     353     399
    1889    1731     353     402
    1890    1732     356     360
    1891    1733     357     360
    1892    1734     306     492
    1893    1735     304     306
    1894    1736     305     306
    1895    1737     305     492
    1896    1738     301     492
    1897    1739     306     307
    1898    1740     306     308
    1899    1566     303     304
    1900    1741     303     305
    1901     871     304     305
    1902    1742     301     303
    1903    1743     302     303
    1904    1744     302     304
    1905    1745     302     305
    1906    1746     304     309
    1907    1747     304     310
    1908    1748     305     309
    1909    1749     305     310
    1910    1750     304     311
    1911    1751     304     308
    1912    1752     305     308
    1913    1753     391     395
    1914    1754     392     395
    1915    1755     393     395
    1916    1756     395     396
    1917    1757     394     395
    1918     251     395     397
    1919    1758     395     398
    1920    1759     325     395
    1921    1760     395     399
    1922    1761     301     302
    1923    1762     302     310
    1924    1763     386     391
    1925    1764     387     391
    1926    1765     390     391
    1927     454     389     391
    1928    1766     391     392
    1929    1767     391     393
    1930    1768     388     391
    1931     398     391     394
    1932    1769     383     384
    1933    1770     383     385
    1934    1771     383     386
    1935    1772     383     387
    1936    1773     384     385
    1937    1774     384     386
    1938    1775     384     387
    1939    1776     385     386
    1940    1777     385     387
    1941    1778     386     387
    1942    1779     381     383
    1943     985     382     383
    1944    1780     381     384
    1945    1781     382     384
    1946    1782     381     385
    1947    1783     382     385
    1948    1784     382     386
    1949    1785     385     389
    1950    1653     386     389
    1951    1786     387     389
    1952     598     386     390
    1953    1787     387     390
    1954      41     384     388
    1955    1788     385     388
    1956    1789     386     388
    1957    1790     387     388
    1958    1791     387     392
    1959    1792     380     381
    1960    1793     380     382
    1961    1794     381     382
    1962    1795     379     380
    1963    1796     379     381
    1964    1797     379     382
    1965     860     378     380
    1966    1798     378     379
    1967    1799     331     335
    1968    1800     332     335
    1969     315     334     335
    1970     229     406     409
    1971     380     403     406
    1972    1801     406     407
    1973    1802     407     409
    1974    1803     405     406
    1975    1804     405     409
    1976     448     409     410
    1977    1805     406     408
    1978    1806     408     409
    1979    1807     402     406
    1980    1808     404     406
    1981    1809     404     409
    1982    1810     409     412
    1983    1811     409     413
    1984    1812     409     411
    1985    1813     403     407
    1986    1814     332     403
    1987    1815     399     403
    1988    1816     400     403
    1989    1817     401     403
    1990    1720     402     403
    1991    1818     403     404
    1992    1819     404     407
    1993    1820     407     408
    1994     908     330     331
    1995    1821     330     332
    1996    1822     330     334
    1997    1170     331     332
    1998    1823     331     334
    1999    1824     332     334
    2000    1825     327     330
    2001     760     328     330
    2002     491     329     330
    2003    1826     327     331
    2004    1827     328     331
    2005     756     329     331
    2006    1828     328     332
    2007    1829     329     332
    2008     826     326     330
    2009    1830     308     309
    2010    1831     308     310
    2011    1832     405     410
    2012    1833     401     405
    2013    1834     402     405
    2014    1835     404     405
    2015    1836     405     413
    2016    1837     410     412
    2017    1838     410     413
    2018    1839     410     414
    2019    1840     403     405
    2020    1841     405     407
    2021    1842     410     411
    2022    1843     405     408
    2023    1844     408     410
    2024    1845     399     400
    2025    1846     399     401
    2026    1847     399     402
    2027    1688     400     401
    2028    1848     400     402
    2029    1849     400     404
    2030    1850     401     402
    2031    1851     401     404
    2032    1852     402     404
    2033    1853     328     399
    2034    1854     328     400
    2035    1855     397     399
    2036    1856     398     399
    2037    1857     397     400
    2038    1858     398     400
    2039    1859     397     401
    2040    1860     398     401
    2041    1861     398     402
    2042    1862     396     399
    2043    1863     396     400
    2044    1864     404     413
    2045    1865     322     400
    2046    1866     404     408
    2047    1867     325     327
    2048    1868     325     328
    2049    1869     325     329
    2050    1870     327     328
    2051    1871     327     329
    2052    1872     328     329
    2053     828     325     326
    2054     135     326     327
    2055    1873     326     328
    2056    1874     326     329
    2057    1875     324     325
    2058    1876     325     392
    2059    1877     325     396
    2060    1878     324     327
    2061    1879     324     328
    2062    1880     323     325
    2063    1881     323     327
    2064    1882     323     328
    2065    1883     309     310
    2066    1884     310     314
    2067    1885     314     397
    2068    1886     309     311
    2069     749     310     311
    2070    1887     310     312
    2071    1888     311     314
    2072    1889     312     314
    2073    1890     309     313
    2074    1891     310     313
    2075    1892     313     314
    2076    1893     314     417
    2077    1894     314     317
    2078    1895     314     316
    2079    1845     314     315
    2080    1896     394     397
    2081    1897     394     398
    2082    1898     397     398
    2083    1899     392     394
    2084    1900     393     394
    2085    1901     394     396
    2086    1902     393     397
    2087    1903     396     397
    2088     419     396     398
    2089    1904     322     397
    2090    1905     324     396
    2091    1906     392     393
    2092    1907     392     396
    2093    1908     393     396
    2094    1909     388     392
    2095    1910     390     392
    2096    1911     390     393
    2097    1912     322     324
    2098    1913     322     396
    2099    1914     389     392
    2100    1915     389     393
    2101    1916     319     393
    2102    1917     324     326
    2103    1918     323     324
    2104    1919     323     396
    2105    1920     388     389
    2106    1159     311     312
    2107    1741     312     316
    2108    1921     311     315
    2109    1922     312     315
    2110    1923     311     313
    2111      65     312     313
    2112    1924     389     390
    2113    1925     388     390
    2114    1926     408     440
    2115    1927     440     442
    2116    1928     440     443
    2117    1929     440     444
    2118    1930     440     441
    2119    1931     439     440
    2120     232     408     412
    2121    1932     408     413
    2122    1933     408     438
    2123    1934     408     439
    2124    1935     411     412
    2125     183     411     413
    2126    1748     411     414
    2127    1936     411     415
    2128    1937     412     413
    2129    1938     412     414
    2130    1939     412     415
    2131    1940     412     416
    2132    1941     413     414
    2133    1942     413     415
    2134    1943     413     416
    2135      44     414     415
    2136    1944     414     416
    2137    1945     415     416
    2138    1946     413     417
    2139    1947     414     417
    2140    1948     415     417
    2141    1949     416     417
    2142    1950     416     436
    2143    1951     416     437
    2144    1952     414     418
    2145    1953     415     418
    2146    1954     415     419
    2147    1955     416     418
    2148    1956     416     419
    2149    1957     416     420
    2150    1958     321     323
    2151    1517     322     323
    2152    1959     313     417
    2153      73     313     316
    2154    1960     313     418
    2155    1961     417     418
    2156     632     417     419
    2157    1962     417     420
    2158    1963     417     421
    2159      72     313     315
    2160    1964     317     321
    2161    1965     315     317
    2162    1966     317     318
    2163    1967     317     319
    2164    1968     317     421
    2165    1969     320     321
    2166    1970     320     322
    2167    1456     321     322
    2168     271     319     320
    2169    1971     319     321
    2170      33     315     316
    2171    1972     316     318
    2172    1973     316     317
    2173    1974     316     421
    2174     121     315     318
    2175    1975     315     319
    2176    1976     318     319
    2177    1977     318     320
    2178    1978     318     321
    2179    1979     442     443
    2180     216     442     444
    2181    1980     442     445
    2182    1981     443     444
    2183    1982     443     445
    2184     694     444     445
    2185    1983     441     442
    2186    1984     441     443
    2187    1985     441     444
    2188    1986     441     445
    2189    1987     442     446
    2190    1988     442     447
    2191    1989     445     446
    2192    1990     445     447
    2193    1991     439     442
    2194    1992     439     441
    2195    1993     438     439
    2196    1994     437     438
    2197    1995     437     439
    2198    1996     436     437
    2199    1997     419     436
    2200    1998     420     436
    2201    1999     434     436
    2202    2000     435     436
    2203    2001     436     438
    2204     129     435     437
    2205    2002     418     419
    2206    2003     418     420
    2207    2004     418     421
    2208    2005     418     422
    2209    2006     419     420
    2210    2007     419     421
    2211    2008     419     422
    2212    2009     420     421
    2213     339     420     422
    2214    2010     421     422
    2215      99     420     424
    2216    2011     421     424
    2217    2012     422     424
    2218    2013     419     423
    2219    2014     420     423
    2220    2015     421     423
    2221    1041     422     423
    2222     528     421     425
    2223    2016     422     425
    2224       2     422     426
    2225    2017     420     435
    2226    2018     424     425
    2227    2019     423     424
    2228    2020     424     426
    2229    2021     425     427
    2230    2022     425     426
    2231    2023     423     425
    2232    2024     446     447
    2233    2025     433     434
    2234    2026     433     435
    2235    2027     434     435
    2236     219     432     433
    2237    2028     432     434
    2238    2029     423     431
    2239      25     428     431
    2240    2030     423     426
    2241    2031     426     431
    2242     873     430     431
    2243    2032     427     431
    2244    2033     431     432
    2245    2034     431     433
    2246      22     429     431
    2247    1900     427     428
    2248      42     428     429
    2249      24     428     430
    2250       3     426     427
    2251    2035     426     428
    2252    2036     426     430
    2253    2037     427     429
    2254    2038     427     430
    2255       8     430     432
    2256    2039     429     430
    2257    1475     720     723
    2258    2040     720     724
    2259    2041     719     720
    2260    2042     720     722
    2261    2043     717     720
    2262     639     718     720
    2263    2044     716     720
    2264    2045     728     730
    2265    2046     729     730
    2266    2047     730     731
    2267     852     730     732
    2268    2048     730     733
    2269    2049     721     729
    2270    2041     728     729
    2271    2050     721     723
    2272    2051     721     724
    2273    2052     724     728
    2274    2053     725     728
    2275    2054     724     729
    2276    2055     725     729
    2277    2056     727     728
    2278    2057     727     729
    2279    2058     721     733
    2280    2059     726     728
    2281    2060     726     729
    2282    1993     721     722
    2283     807     720     721
    2284    2061     729     731
    2285    2062     717     721
    2286    2063     718     721
    2287    2064     721     734
    2288    2065     719     721
    2289    2066     723     724
    2290    2067     723     725
    2291    2068     724     725
    2292    2069     724     726
    2293    2070     725     726
    2294    2071     722     723
    2295    2072     722     724
    2296    2073     722     725
    2297    2074     719     723
    2298    2075     726     727
    2299    2076     725     727
    2300     999     712     713
    2301    2077     713     716
    2302     718     713     714
    2303    2078     713     717
    2304    2079     710     713
    2305    2080     711     713
    2306    2081     713     715
    2307    2082     709     713
    2308    2083     712     716
    2309    2084     712     715
    2310    2085     715     716
    2311    2086     716     719
    2312    2087     710     712
    2313    2088     711     712
    2314    2089     708     712
    2315    1340     709     712
    2316    2090     608     609
    2317    2091     608     610
    2318    2092     608     611
    2319    2093     609     610
    2320    2094     609     611
    2321    2095     610     611
    2322    2096     608     612
    2323    2097     609     612
    2324    2098     609     613
    2325    2099     610     612
    2326    2100     610     613
    2327    2101     610     614
    2328    2102     611     612
    2329    2103     611     613
    2330    2104     611     614
    2331    2105     602     608
    2332    2106     602     609
    2333    2107     607     608
    2334    2108     607     609
    2335    2109     607     611
    2336    2110     603     608
    2337    2111     606     608
    2338    2112     714     717
    2339    2113     714     718
    2340    2114     714     734
    2341    2115     717     718
    2342    2116     717     734
    2343    2117     718     734
    2344    2118     714     715
    2345    2119     715     717
    2346    2120     717     719
    2347    2121     715     718
    2348    1688     718     719
    2349    2122     718     733
    2350    2123     733     734
    2351    2124     714     735
    2352    2125     714     736
    2353    2126     718     735
    2354    2127     734     735
    2355    2128     734     736
    2356    2129     718     722
    2357    1371     712     714
    2358    2130     714     716
    2359     394     716     717
    2360    2131     716     718
    2361    1335     710     714
    2362    2112     711     714
    2363    2132     615     715
    2364    2133     615     719
    2365    2134     715     719
    2366    2135     612     615
    2367    2136     613     615
    2368    2137     614     615
    2369    2138     614     719
    2370    2139     719     722
    2371     935     615     616
    2372    2140     611     715
    2373    2141     615     617
    2374    2142     711     715
    2375    2143     612     613
    2376    2144     612     614
    2377    2145     613     614
    2378    2146     613     616
    2379    2147     614     616
    2380    2148     612     695
    2381    2149     607     612
    2382    1526     731     732
    2383    2150     731     733
    2384    1159     732     733
    2385    2151     732     734
    2386    2152     733     735
    2387    1134     616     617
    2388    2153     616     618
    2389    2154     616     619
    2390    2155     891     894
    2391    1388     892     894
    2392    2156     893     894
    2393    2157     789     791
    2394    2158     790     791
    2395    1350     791     792
    2396    2159     604     791
    2397    2160     791     793
    2398    2161     786     789
    2399    2162     789     790
    2400    2163     784     786
    2401    2164     785     786
    2402    2165     786     787
    2403    2166     786     788
    2404    2167     785     789
    2405    2168     787     789
    2406    2169     788     789
    2407    2170     788     790
    2408    2171     604     789
    2409    2172     603     790
    2410    2173     604     790
    2411    2174     786     793
    2412    2175     786     797
    2413    2176     789     792
    2414    2177     790     792
    2415    2178     783     786
    2416    2179     784     785
    2417    2180     784     787
    2418    2181     784     788
    2419    2182     785     787
    2420    2183     785     788
    2421     477     787     788
    2422    2184     599     787
    2423    2185     599     788
    2424    2186     600     788
    2425    2187     779     784
    2426    2188     780     784
    2427    2189     787     801
    2428    2190     787     797
    2429    2191     782     784
    2430     345     783     784
    2431    2192     783     785
    2432    2193     783     787
    2433     593     781     784
    2434    1235     708     709
    2435    1566     707     708
    2436    2194     708     710
    2437    2195     708     711
    2438    2196     707     709
    2439    2197     709     710
    2440    2198     709     711
    2441    2199     703     708
    2442    2200     706     708
    2443    2201     605     606
    2444    1297     603     605
    2445    2202     604     605
    2446    2203     603     606
    2447     368     604     606
    2448    2204     605     607
    2449    2205     606     607
    2450    2206     602     605
    2451    2207     602     606
    2452    1543     603     604
    2453    2208     600     603
    2454    2209     601     603
    2455    2210     602     603
    2456    2211     602     604
    2457    2212     604     792
    2458    2213     598     599
    2459    2214     598     600
    2460      27     599     600
    2461    1417     597     598
    2462    2215     597     599
    2463    2216     599     801
    2464    2217     599     805
    2465    2218     597     780
    2466    2219     739     740
    2467    2220     739     741
    2468    2221     740     741
    2469    2222     737     739
    2470    2223     741     743
    2471    2224     738     739
    2472    2225     738     740
    2473    2226     740     742
    2474    2227     741     742
    2475    2228     710     737
    2476     834     737     738
    2477    2229     735     737
    2478    2230     736     737
    2479    2231     707     710
    2480    2232     707     711
    2481    2233     710     711
    2482    2234     710     736
    2483    2235     711     736
    2484    2236     702     707
    2485    2237     703     707
    2486    2238     704     707
    2487    2239     705     707
    2488    2095     706     707
    2489    2240     706     710
    2490    2241     702     711
    2491    2242     703     711
    2492    2243     706     711
    2493    2244     602     607
    2494    2245     603     607
    2495     520     601     602
    2496    2246     602     696
    2497    2247     599     601
    2498    1377     600     601
    2499    2248     600     602
    2500    2249     736     738
    2501    2250     706     738
    2502     217     735     736
    2503    2251     692     695
    2504     937     691     692
    2505    1041     692     693
    2506    2252     692     694
    2507    2049     691     695
    2508    2253     693     695
    2509    2254     694     695
    2510     200     689     692
    2511    2255     690     692
    2512    2256     695     698
    2513    2257     692     696
    2514    2258     695     696
    2515    2259     695     697
    2516    2260     695     699
    2517    1634     619     620
    2518    2261     617     619
    2519    2262     618     619
    2520    2263     617     620
    2521    2264     618     620
    2522    2265     619     621
    2523    2266     620     621
    2524    1974     620     622
    2525    2267     620     695
    2526    2268     620     698
    2527    2269     620     694
    2528    2270     617     618
    2529    2271     684     688
    2530    2272     685     688
    2531    2273     686     688
    2532    2274     687     688
    2533    2275     688     689
    2534    1340     688     690
    2535    1603     688     691
    2536    2276     891     892
    2537    1230     891     893
    2538    2224     892     893
    2539    2277     889     891
    2540    2278     890     891
    2541    2279     889     892
    2542    2280     890     892
    2543    2281     782     783
    2544    2282     781     782
    2545    2283     781     783
    2546    2284     778     782
    2547    2285     779     782
    2548    2286     780     782
    2549    2287     779     783
    2550    2288     780     783
    2551    2289     777     781
    2552    2290     778     781
    2553    2291     779     781
    2554    1083     780     781
    2555    2292     792     793
    2556    2293     792     794
    2557    2294     646     792
    2558    2295     793     794
    2559    2296     793     797
    2560    2297     794     797
    2561    2298     794     798
    2562    2299     797     798
    2563    2300     793     795
    2564    2301     794     795
    2565     294     794     796
    2566    2302     795     797
    2567    2303     796     797
    2568    2304     797     800
    2569    2305     797     801
    2570    2306     797     849
    2571    2307     797     799
    2572    2308     776     777
    2573    2309     776     778
    2574    2310     776     779
    2575    2311     776     780
    2576    2312     777     778
    2577    2313     777     779
    2578    2314     777     780
    2579    2315     778     779
    2580    2316     778     780
    2581    2317     779     780
    2582    1682     775     776
    2583    2318     775     777
    2584    2319     775     778
    2585    2320     775     779
    2586    2321     774     776
    2587    2322     774     777
    2588    2323     774     778
    2589    2324     772     776
    2590    2325     773     776
    2591    2326     773     777
    2592    2327     742     744
    2593    2328     742     743
    2594    2329     743     744
    2595    2330     744     745
    2596    2331     646     647
    2597    2332     647     700
    2598    2333     644     646
    2599    2334     645     646
    2600    2335     646     648
    2601    2336     646     649
    2602    2337     645     647
    2603    2145     647     648
    2604    2338     647     649
    2605    2152     646     650
    2606    2339     647     650
    2607    2340     647     651
    2608    2341     646     795
    2609    2342     798     800
    2610    2343     798     801
    2611    2344     798     802
    2612    2345     650     798
    2613    1033     798     799
    2614    2346     795     798
    2615    2347     796     798
    2616    1949     800     801
    2617    2348     800     802
    2618    2349     800     804
    2619    2022     801     802
    2620    2350     801     804
    2621    2351     802     804
    2622     995     801     805
    2623    2352     802     805
    2624    2353     802     806
    2625    2354     804     805
    2626    2355     804     806
    2627    2356     800     803
    2628    2357     800     846
    2629    2358     801     803
    2630    1417     802     803
    2631    2359     803     804
    2632    2360     804     808
    2633    2361     799     800
    2634    2362     799     801
    2635    1351     650     802
    2636    2363     799     802
    2637    2364     800     849
    2638    2365     800     850
    2639    1625     804     807
    2640    2366     653     802
    2641    2367     654     802
    2642    2368     796     800
    2643    2369     743     745
    2644    1085     702     703
    2645    2370     702     704
    2646    2371     702     705
    2647    2372     702     706
    2648    2373     703     704
    2649    2374     703     705
    2650    1881     703     706
    2651     822     704     705
    2652    2375     704     706
    2653    2376     705     706
    2654    2377     699     702
    2655    2378     700     702
    2656    2379     701     702
    2657    2380     699     703
    2658    2381     700     703
    2659    2382     701     703
    2660    2383     700     704
    2661    2384     701     704
    2662    2385     701     705
    2663    2386     698     702
    2664    2387     647     704
    2665    2145     699     700
    2666    2388     699     701
    2667    2389     700     701
    2668    2390     696     699
    2669    2391     697     699
    2670    2392     696     700
    2671    2393     697     700
    2672    2394     697     701
    2673    1803     698     699
    2674    2395     698     700
    2675    1821     698     701
    2676    2396     651     700
    2677    2397     696     697
    2678    2011     693     696
    2679    2398     694     696
    2680    2399     693     697
    2681    2400     694     697
    2682    2401     654     697
    2683    2402     651     697
    2684    2403     626     697
    2685    1159     805     806
    2686    2404     805     808
    2687    2405     805     809
    2688    2406     806     808
    2689    2407     806     809
    2690    2408     657     806
    2691    2409     805     807
    2692    2410     806     807
    2693    2411     806     810
    2694     490     803     805
    2695     327     803     806
    2696    2376     808     809
    2697    2412     808     811
    2698    2413     809     811
    2699    2414     808     812
    2700    2415     809     812
    2701    2416     809     813
    2702    2417     811     812
    2703    2418     811     813
    2704    2419     807     808
    2705    2420     808     810
    2706    2421     807     809
    2707    1721     809     810
    2708    1704     807     811
    2709     680     810     811
    2710    2422     811     815
    2711    2423     811     814
    2712    2424     694     698
    2713    2425     621     698
    2714    2426     626     698
    2715    2382     696     698
    2716    2427     697     698
    2717    2428     691     693
    2718    2429     691     694
    2719    2430     693     694
    2720    2431     689     691
    2721    2432     690     691
    2722    2433     689     693
    2723    2434     690     693
    2724    2435     690     694
    2725    2436     622     694
    2726    2437     686     691
    2727    2438     687     691
    2728    2439     623     694
    2729    2440     689     690
    2730    2441     684     689
    2731    2442     685     689
    2732    2443     686     689
    2733    2444     687     689
    2734    2445     685     690
    2735    2446     686     690
    2736    2447     687     690
    2737    2448     689     809
    2738    2449     812     813
    2739    2450     812     815
    2740    2451     812     816
    2741    2452     813     815
    2742    2453     813     816
    2743    2454     813     817
    2744    2455     812     814
    2745    2456     813     814
    2746    2457     810     812
    2747    1069     810     813
    2748    2458     815     816
    2749    2459     815     818
    2750    2460     815     819
    2751    2461     816     818
    2752    2462     816     819
    2753    2463     818     819
    2754    2464     815     817
    2755    2465     816     817
    2756    2466     816     820
    2757    2467     817     818
    2758    2468     818     820
    2759    2469     818     821
    2760    2470     817     819
    2761    1543     819     820
    2762    2471     819     821
    2763    2472     814     815
    2764    2473     814     816
    2765    2474     814     818
    2766    2475     818     830
    2767    2476     818     827
    2768     694     621     622
    2769    2477     621     625
    2770    2478     621     623
    2771    2479     621     694
    2772    2480     621     626
    2773    2481     622     623
    2774    2482     622     624
    2775    2483     622     625
    2776    2484     622     626
    2777    2485     683     684
    2778    2486     683     685
    2779    2487     683     686
    2780    2488     683     687
    2781    2489     684     685
    2782     960     684     686
    2783    2490     684     687
    2784    1163     685     686
    2785    2491     685     687
    2786    1702     686     687
    2787    2492     681     683
    2788    2493     681     684
    2789    2494     681     685
    2790    2495     682     683
    2791    2496     682     684
    2792    2497     682     685
    2793    2498     682     686
    2794    2499     680     683
    2795    2500     680     684
    2796    2501     665     685
    2797    2502     623     686
    2798    2503     679     683
    2799     310     680     681
    2800    2504     665     681
    2801    2505     669     681
    2802    2506     677     681
    2803    2507     678     681
    2804    2508     679     681
    2805    2509     681     682
    2806    2510     817     820
    2807    2511     817     821
    2808    2512     820     821
    2809     360     820     822
    2810    2513     821     822
    2811    2514     821     823
    2812    2515     821     826
    2813    2516     814     817
    2814    1933     821     827
    2815    2517     822     823
    2816    2518     822     824
    2817    2519     676     680
    2818      82     677     680
    2819    2520     678     680
    2820    2521     679     680
    2821    2522     680     682
    2822    2523     888     889
    2823    2524     888     890
    2824    2525     889     890
    2825    2526     854     888
    2826    2527     855     888
    2827    2528     855     889
    2828    2529     886     888
    2829    2530     887     888
    2830    2531     887     889
    2831    2532     851     852
    2832     738     851     853
    2833    2533     851     854
    2834    2534     851     855
    2835    2535     852     853
    2836    2536     852     854
    2837    2537     852     855
    2838     178     853     854
    2839    2538     853     855
    2840    2539     854     855
    2841    2540     849     851
    2842    2541     850     851
    2843    2542     849     852
    2844    2543     850     852
    2845    2544     849     853
    2846    2545     850     853
    2847    2546     850     854
    2848    2547     851     860
    2849    2548     852     860
    2850    2549     855     859
    2851    2550     855     860
    2852    2551     847     851
    2853    2552     848     851
    2854    2553     848     852
    2855    2554     851     856
    2856    2555     852     856
    2857    2556     852     857
    2858    2557     853     856
    2859    2558     854     856
    2860    2559     855     856
    2861    2560     855     857
    2862    2561     795     796
    2863    2562     796     849
    2864    2563     795     799
    2865    2564     796     799
    2866    2565     796     852
    2867    2566     796     853
    2868    2567     849     850
    2869    2568     847     849
    2870    2569     775     850
    2871    2570     847     850
    2872    2571     846     849
    2873    2572     846     850
    2874    2573     848     849
    2875    2574     848     850
    2876    2575     845     849
    2877    2576     775     847
    2878    2577     774     775
    2879    2578     772     775
    2880    2579     769     847
    2881    2580     771     775
    2882    2581     773     775
    2883    2582     770     775
    2884    2583     843     847
    2885    2584     844     847
    2886    2585     847     848
    2887    2586     845     847
    2888    2587     771     774
    2889    2588     773     774
    2890    2589     770     774
    2891    2590     643     644
    2892    2591     643     645
    2893    2592     643     648
    2894    2593     643     649
    2895    2594     644     645
    2896    2595     644     648
    2897    2596     645     648
    2898    2597     645     649
    2899    2598     648     649
    2900    2599     648     650
    2901    2600     649     650
    2902    2601     648     651
    2903    2602     649     651
    2904    2603     640     643
    2905    2604     641     643
    2906    1040     642     643
    2907    2605     643     753
    2908    2606     642     644
    2909    2607     648     652
    2910    2608     649     652
    2911    2609     649     653
    2912    2610     637     648
    2913    2611     643     795
    2914    2612     649     795
    2915    2613     650     799
    2916    2614     799     803
    2917    2615     650     652
    2918    2616     650     653
    2919    2617     650     654
    2920    2618     653     799
    2921    2619     799     849
    2922    2620     803     846
    2923    2621     842     846
    2924    2622     657     803
    2925     838     845     846
    2926    2623     803     807
    2927    2624     843     846
    2928    2625     844     846
    2929    2626     775     846
    2930     983     846     847
    2931    2627     846     848
    2932    2628     772     842
    2933    1206     771     772
    2934    2629     772     773
    2935    2630     772     843
    2936    2631     840     842
    2937    2632     841     842
    2938    1778     842     843
    2939    2633     842     844
    2940    2634     838     842
    2941    2635     839     842
    2942    2636     772     774
    2943    2637     842     845
    2944     600     770     772
    2945    2638     771     773
    2946    2639     771     843
    2947    2640     770     771
    2948    2641     769     771
    2949    2642     632     634
    2950    2643     633     634
    2951    2644     634     635
    2952    2645     634     636
    2953     539     630     634
    2954    2646     634     637
    2955     172     634     638
    2956    2647     631     634
    2957    2648     651     652
    2958    2649     651     653
    2959    2650     651     654
    2960    2651     651     655
    2961    1621     650     651
    2962    1393     652     653
    2963    2652     652     654
    2964    2653     652     655
    2965    2654     652     656
    2966    2655     653     654
    2967    2656     653     655
    2968    2657     653     656
    2969    1650     654     655
    2970    2658     654     656
    2971    2659     655     656
    2972    2660     653     657
    2973    2661     654     657
    2974    2662     655     657
    2975    2663     656     657
    2976    2664     656     660
    2977    2665     652     748
    2978    2666     656     748
    2979    2667     654     658
    2980    2668     655     658
    2981    2669     655     659
    2982    2670     656     658
    2983    2671     656     659
    2984    2672     638     652
    2985    2673     656     750
    2986    2674     657     660
    2987    1115     657     658
    2988    2675     657     659
    2989    2676     657     661
    2990    2677     658     660
    2991    2678     659     660
    2992    2213     660     661
    2993    2679     660     662
    2994    2680     660     664
    2995    2681     660     838
    2996    2682     660     663
    2997    2683     807     810
    2998     197     810     814
    2999    2684     834     835
    3000    2685     830     834
    3001    2686     831     834
    3002    2687     831     835
    3003    2688     832     834
    3004    2689     834     836
    3005    2690     832     835
    3006    1033     835     836
    3007     726     833     834
    3008    2691     833     835
    3009    2692     834     837
    3010    2693     834     838
    3011    2694     834     839
    3012    2695     835     837
    3013    2696     835     838
    3014    2697     835     839
    3015    2698     835     840
    3016    2699     632     633
    3017    2700     629     632
    3018    2701     630     632
    3019    2702     629     633
    3020    1866     630     633
    3021    2703     628     632
    3022    2704     631     632
    3023    2705     631     633
    3024    2706     632     635
    3025    2707     633     635
    3026    2708     626     627
    3027    2709     626     629
    3028    2710     626     630
    3029    1168     627     629
    3030    2711     627     630
    3031    2712     629     630
    3032     517     625     626
    3033    2713     626     628
    3034    1323     625     627
    3035    2714     627     628
    3036    2715     625     629
    3037    2716     628     629
    3038    2717     628     630
    3039    2718     627     631
    3040    2719     629     631
    3041    2720     630     631
    3042    2721     623     626
    3043    2722     624     626
    3044    2723     623     627
    3045    2724     624     627
    3046    2725     630     635
    3047     841     658     659
    3048    2726     658     661
    3049    2727     658     662
    3050    2728     659     661
    3051    2729     659     662
    3052    2730     661     662
    3053    2731     661     664
    3054    2732     662     664
    3055    2733     659     663
    3056    2734     661     663
    3057    2735     662     663
    3058    1866     661     665
    3059    2736     662     665
    3060    2737     661     810
    3061    2738     662     666
    3062    2739     664     665
    3063    2740     664     668
    3064    2741     664     666
    3065    2742     664     667
    3066    2743     663     664
    3067    2744     814     830
    3068    2745     814     831
    3069    2746     830     831
    3070    2747     827     830
    3071    2748     828     830
    3072    2749     827     831
    3073    2750     828     831
    3074    2751     829     830
    3075    2752     830     833
    3076    2753     829     831
    3077    2754     831     833
    3078    2755     826     830
    3079    2756     830     832
    3080    2632     831     832
    3081    2757     824     825
    3082    2758     824     827
    3083    2759     824     828
    3084    2760     825     827
    3085    2761     825     828
    3086    2762     827     828
    3087    2763     823     824
    3088    2764     824     826
    3089    2765     823     825
    3090    1237     825     826
    3091    2766     823     827
    3092      46     826     827
    3093    2767     826     828
    3094    2768     825     829
    3095    2769     827     829
    3096    2770     828     829
    3097     763     828     832
    3098    2771     625     628
    3099    2772     623     625
    3100    2773     624     625
    3101    2774     624     628
    3102    2775     628     631
    3103    2776     623     624
    3104    2777     665     682
    3105    2778     678     682
    3106    2779     679     682
    3107    2780     665     668
    3108    2781     665     669
    3109    2782     668     669
    3110    2783     668     672
    3111    2784     669     672
    3112    2785     669     678
    3113    2786     665     666
    3114    2787     665     667
    3115    2788     666     668
    3116    2789     667     668
    3117    2790     668     670
    3118    2791     666     669
    3119    2792     667     669
    3120    2793     669     670
    3121    2794     668     671
    3122    2795     669     671
    3123    2796     663     665
    3124    2797     672     674
    3125    2798     671     672
    3126    2799     672     673
    3127    2800     670     672
    3128    2801     823     826
    3129    2802     826     829
    3130    2803     675     676
    3131    2804     675     677
    3132    2805     675     678
    3133    2806     675     679
    3134    2807     676     677
    3135    2808     676     678
    3136    2809     676     679
    3137       3     677     678
    3138    2810     677     679
    3139    2590     678     679
    3140    2811     674     675
    3141    2812     674     676
    3142    2813     674     677
    3143    2814     674     678
    3144    2815     673     675
    3145    2816     672     678
    3146    2329     673     674
    3147    2817     886     887
    3148    2818     885     886
    3149    2819     885     887
    3150     740     884     886
    3151    2201     856     857
    3152    2820     856     858
    3153    2821     857     858
    3154    2822     856     859
    3155    2823     856     860
    3156    2824     857     859
    3157    2825     857     860
    3158    2826     858     859
    3159    2827     858     860
    3160    2353     857     861
    3161    2828     858     861
    3162    2829     858     862
    3163    2830     859     860
    3164    2831     859     861
    3165    2832     859     862
    3166     645     859     863
    3167    2833     860     861
    3168    2834     860     862
    3169    2835     860     863
    3170    2836     860     864
    3171    2837     883     885
    3172    2838     884     885
    3173    2839     863     885
    3174    2840     754     755
    3175    2841     751     754
    3176    2662     752     754
    3177    2842     751     755
    3178    2843     752     755
    3179    2844     754     756
    3180    2845     755     756
    3181    2378     845     848
    3182    2846     844     848
    3183    2847     767     769
    3184    1682     768     769
    3185    2848     769     770
    3186    2849     769     843
    3187    2850     769     844
    3188    2851     766     769
    3189    2852     767     768
    3190    2853     767     770
    3191    2854     768     770
    3192    2855     766     767
    3193    2856     766     768
    3194    1451     765     767
    3195    2857     765     768
    3196    2858     764     768
    3197    2859     640     641
    3198    2860     640     642
    3199    2861     640     753
    3200    2862     641     642
    3201    2863     641     753
    3202    2864     642     753
    3203    2865     640     752
    3204    2866     641     752
    3205    2867     751     753
    3206    2868     752     753
    3207    2869     637     640
    3208    2870     638     640
    3209    2871     639     640
    3210    2872     639     641
    3211    2873     641     754
    3212    2874     641     755
    3213    2875     753     754
    3214    2876     753     755
    3215     898     750     751
    3216    2877     750     752
    3217    2878     751     752
    3218    2879     748     750
    3219    2880     749     750
    3220    2881     749     751
    3221    2882     749     752
    3222    2424     751     757
    3223    2883     752     757
    3224    2884     751     758
    3225    2885     751     756
    3226    2886     752     756
    3227    2887     841     845
    3228    2888     843     845
    3229    2889     844     845
    3230    2890     840     841
    3231    2891     840     843
    3232    2892     840     844
    3233    2893     841     843
    3234    2894     841     844
    3235    2895     843     844
    3236    2896     766     840
    3237    2897     837     840
    3238     323     838     840
    3239    2898     839     840
    3240    2899     838     841
    3241    2900     839     841
    3242    2901     839     843
    3243    2902     836     840
    3244    2903     770     843
    3245    2904     761     844
    3246    2905     765     766
    3247    2906     764     766
    3248    2907     635     636
    3249      18     635     637
    3250    2908     635     638
    3251    2909     635     639
    3252    2910     636     637
    3253     162     636     638
    3254    2911     636     639
    3255    2912     631     635
    3256    2913     635     746
    3257    2914     636     640
    3258    2915     637     638
    3259    2916     637     639
    3260    2917     638     639
    3261    2918     638     748
    3262    2919     639     748
    3263    2920     638     746
    3264    2921     639     746
    3265    2922     748     749
    3266    2923     747     748
    3267    2924     747     749
    3268    2925     837     838
    3269    2926     837     839
    3270    2927     838     839
    3271    1727     836     837
    3272    2928     836     838
    3273    2929     836     839
    3274    2930     833     837
    3275    2931     833     838
    3276    2932     832     836
    3277    2933     829     832
    3278    2934     832     833
    3279    2935     833     836
    3280    2936     746     747
    3281    2937     746     748
    3282    2938     663     666
    3283    2723     663     667
    3284    2939     829     833
    3285    2940     666     667
    3286    2892     666     670
    3287    2941     667     670
    3288     606     667     671
    3289     504     670     671
    3290    2942     671     673
    3291    2943     861     862
    3292    2944     861     863
    3293    2945     861     864
    3294    2946     861     865
    3295    2947     862     863
    3296    1259     862     864
    3297    2948     862     865
    3298    2949     863     864
    3299    2950     863     865
    3300    2951     864     865
    3301    2952     863     867
    3302    2953     864     867
    3303    2954     865     867
    3304    2955     862     866
    3305    2860     863     866
    3306    2956     864     866
    3307    2093     865     866
    3308    2957     865     869
    3309    2958     864     868
    3310    2959     865     868
    3311    2960     867     883
    3312    2961     883     884
    3313    2962     867     882
    3314    2963     881     883
    3315    2964     882     883
    3316    2965     882     884
    3317    2966     867     869
    3318    2967     867     870
    3319    2968     867     868
    3320    2969     867     871
    3321    2970     866     867
    3322     679     881     882
    3323    2971     879     881
    3324    1697     880     881
    3325    2972     880     882
    3326    2973     756     757
    3327    2974     756     758
    3328    2975     762     764
    3329    2976     763     764
    3330    2977     764     765
    3331    2978     757     758
    3332    2979     757     759
    3333    1459     757     760
    3334    2980     757     761
    3335    2981     758     759
    3336    2982     758     760
    3337    2983     758     761
    3338    2984     759     760
    3339    2985     759     761
    3340    2986     760     761
    3341    1008     758     762
    3342    2987     759     762
    3343    2988     759     763
    3344    2989     760     762
    3345    2990     760     763
    3346     912     761     762
    3347    2510     761     763
    3348    2991     760     764
    3349    2992     761     764
    3350     111     762     763
    3351    2993     763     765
    3352    2994     866     869
    3353    2995     866     870
    3354    2996     866     868
    3355    2997     869     870
    3356    2998     868     869
    3357    2999     869     871
    3358    3000     869     872
    3359    2491     868     870
    3360    3001     870     871
    3361    3002     870     872
    3362    3003     870     878
    3363    3004     869     873
    3364    3005     870     873
    3365     509     879     880
    3366    3006     877     879
    3367    3007     878     879
    3368    3008     878     880
    3369    3009     868     871
    3370    3010     868     872
    3371    2905     871     872
    3372    3011     871     873
    3373    1003     872     873
    3374    3012     871     874
    3375    3013     872     874
    3376    3014     876     877
    3377    3015     876     878
    3378     758     877     878
    3379    3016     874     876
    3380    3017     875     876
    3381    3018     874     877
    3382    1487     875     877
    3383    3019     874     878
    3384    1599     875     878
    3385    2776     873     874
    3386    3020     873     875
    3387    3021     873     877
    3388    3022     873     878
    3389    3023     874     875
    3390    3024      36     316
    3391    3024      25     427
    3392    3024      37     418
    3393    3024      20     430
    3394    3024     137     432
    3395    3024      33     425
    3396    3024     136     433
    3397    3024      23     430
    3398    3024      29     425
    3399    3024      39     312
    3400    3024     139     432
    3401    3024      33     316
    3402    3024      37     313
    3403    3024     136     432
    3404    3024     109     418
    3405    3024      36     312
    3406    3024      37     421
    3407    3024      25     426
    3408    3024     110     422
    3409    3024      32     316
    3410    3025     483     614
    3411    3025     476     723
    3412    3025     484     716
    3413    3025     470     728
    3414    3025     479     723
    3415    3025     586     730
    3416    3025     472     725
    3417    3025     486     610
    3418    3025     482     610
    3419    3025     584     728
    3420    3025     483     611
    3421    3025     480     614
    3422    3025     472     724
    3423    3025     480     720
    3424    3025     479     614
    3425    3025     467     728
    3426    3025     486     608
    3427    3025     483     719
    3428    3025     484     720
    3429    3025     484     614
    3430    3027     884     283
    3431    3027     882     283
    3432    3027     765     281
    3433    3027     782     269
    3434    3027     781     164
    3435    3027     886     270
    3436    3027     774     276
    3437    3027     781     161
    3438    3027     768     281
    3439    3027     781     163
    3440    3027     881     283
    3441    3027     871     281
    3442    3027     778     276
    3443    3027     780     163
    3444    3027     777     163
    3445    3027     770     276
    3446    3027     881     284
    3447    3027     867     281
    3448    3027     768     277
    3449    3027     887     270
