LAMMPS data file via write_data, version 22 Jul 2025, timestep = 1, units = real

596 atoms
25 atom types
2256 bonds
2128 bond types

13.419 149.578 xlo xhi
51.067 128.39 ylo yhi
-197.305 32.03 zlo zhi

Masses

1 110
2 110
3 110
4 110
5 110
6 110
7 110
8 110
9 110
10 110
11 110
12 110
13 110
14 110
15 110
16 110
17 110
18 110
19 110
20 110
21 110
22 110
23 110
24 110
25 110

Atoms # bond

124 1 1 45.87105658176311 102.35277331946276 -182.2944048115692 0 0 0
128 1 1 45.904127442581235 107.31010265030814 -185.0993817772927 0 0 0
127 1 1 49.011341438784285 106.0699709925942 -183.34931938719484 0 0 0
129 1 1 46.96221459791755 110.86420226183193 -185.77226928811982 0 0 0
130 1 1 45.74115290603661 113.58732731753057 -183.37105985546015 0 0 0
131 1 1 43.067003632446394 115.34041640262755 -185.63516737291857 0 0 0
132 1 1 41.87994062521442 112.16017879030989 -187.30533099390712 0 0 0
133 1 1 41.163832281784 110.52918794593054 -183.9001839105838 0 0 0
134 1 1 37.800553945440974 109.14612818284841 -182.74020239176332 0 0 0
298 1 1 61.59597247272651 61.80891579995632 -165.970211935663 0 0 0
146 1 1 26.013877317345113 89.70685137361936 -165.17504514441404 0 0 0
3 1 1 63.51135447738537 86.51423962291041 -167.07239717041662 0 0 0
4 1 1 60.73029352353806 87.91714487943287 -169.30340642517743 0 0 0
7 1 1 55.16006420269148 87.35195616298721 -170.21235590333984 0 0 0
8 1 1 53.718809923910406 84.73482167468244 -167.63532405900634 0 0 0
9 1 1 50.81379367646238 87.09866847436203 -167.0822931755539 0 0 0
10 1 1 50.47883031663338 87.56266551840244 -170.94938400512675 0 0 0
189 1 1 61.74896296662436 75.68358148878616 -168.3114739024612 0 0 0
190 1 1 59.438840030221414 76.93752467744302 -165.6003228111343 0 0 0
191 1 1 61.1049416288195 80.45278882901285 -165.5393324521377 0 0 0
192 1 1 60.589111526971124 80.75378497967169 -169.43954613710554 0 0 0
193 1 1 57.00983548848419 79.28965435745258 -168.9244039822105 0 0 0
194 1 1 53.87173052755471 80.83668207039133 -170.84447205577817 0 0 0
195 1 1 51.849568346075 79.47864036098956 -168.00427095831864 0 0 0
1 1 1 69.16337033828535 83.13514396853812 -169.46347806773656 0 0 0
2 1 1 66.87841821766028 86.11718626592375 -169.0154976407628 0 0 0
184 1 17 69.09343088151806 78.61078418223558 -164.82940280111077 0 0 0
188 1 15 64.86223237174167 77.23567274343492 -166.77144193341474 0 0 0
145 1 1 27.944878871639734 91.61794279602148 -167.88017900057864 0 0 0
110 1 1 39.550607253790595 93.8349954413837 -164.55670534373374 0 0 0
111 1 1 41.13762417224517 90.53361820025862 -165.79482506046273 0 0 0
112 1 1 43.86672603989455 90.19459551442053 -168.40619668437677 0 0 0
113 1 1 42.32575347166065 90.01343018264673 -171.88331289138281 0 0 0
114 1 1 40.28273648043634 93.25472838377773 -171.7952373745701 0 0 0
115 1 1 43.41985091818062 94.91590860706722 -170.5980781841402 0 0 0
116 1 1 45.517829111070604 93.11260313316208 -173.41328753081737 0 0 0
117 1 1 42.843756973680385 94.31561394670857 -175.97440807066573 0 0 0
118 1 1 42.86978003518845 97.73498464694158 -174.2931640011515 0 0 0
119 1 1 46.66394500125985 97.92599085795815 -174.96822335649983 0 0 0
120 1 1 46.45292525515904 97.5487872878142 -178.78246823653845 0 0 0
121 1 1 43.40183025206129 99.67473421335687 -178.89331263220697 0 0 0
122 1 1 44.77092036792341 102.60007727241079 -176.7529727916269 0 0 0
125 1 1 43.96700626722326 105.3630689734092 -180.90824450854188 0 0 0
126 1 1 47.2772050839497 107.16433376252355 -180.00006273680972 0 0 0
136 1 1 36.55660533371764 109.03723924088206 -177.19779383562235 0 0 0
137 1 1 39.54465189210145 106.80320065452631 -176.5636984601128 0 0 0
138 1 1 38.94850939602426 102.8921747052404 -176.24196663685143 0 0 0
139 1 1 38.987657969371064 101.65032643295412 -172.6588092903367 0 0 0
140 1 1 38.83068173469848 98.12420926012173 -170.82401345124097 0 0 0
141 1 1 35.28449159985029 96.6461245541302 -170.10499797494683 0 0 0
142 1 1 33.89272823309025 97.70128175630758 -166.64089793604683 0 0 0
143 1 1 30.47283361448053 96.29418021534337 -167.32008239759736 0 0 0
144 1 1 30.528809665709375 92.8148904459212 -165.54998460232258 0 0 0
5 1 1 58.99722921570115 90.45007165240624 -166.8693412192187 0 0 0
6 1 1 55.37310547485235 90.46396336968355 -167.97134437093277 0 0 0
11 1 1 52.32910505611586 90.70568518599367 -171.9062706949254 0 0 0
12 1 1 55.50816078087277 91.26982341689043 -173.9393980827492 0 0 0
13 1 1 58.00843701564176 94.12498312601802 -173.11127630113936 0 0 0
14 1 1 57.11633384775523 95.35100567297354 -176.6594589234919 0 0 0
15 1 1 53.382284992474546 95.39586189168175 -175.84647728443161 0 0 0
16 1 1 54.06128255349976 97.66608240648061 -172.79725849310537 0 0 0
17 1 1 56.5234829672041 99.79803381555465 -174.96135774958128 0 0 0
18 1 1 53.797422366855706 100.21996766093751 -177.5382819248494 0 0 0
19 1 1 52.004247756297666 102.54827094818368 -175.18610670718508 0 0 0
20 1 1 53.27421389501155 106.14844903403228 -174.2260707966376 0 0 0
21 1 1 55.80809141584117 106.09744077490299 -171.20326838276276 0 0 0
22 1 1 53.87192582549601 108.65553457887167 -169.37722249872027 0 0 0
23 1 1 50.43286058617311 106.83850532473491 -169.3590115504859 0 0 0
24 1 1 50.98366072930132 104.91843106488052 -166.04515338625714 0 0 0
95 1 1 59.34329007788566 103.24020333646793 -165.33030950046646 0 0 0
96 1 1 59.59527108868487 99.42191107676796 -165.5023777129348 0 0 0
99 1 1 54.60306578164774 99.1940716542128 -165.71613316993145 0 0 0
103 1 1 49.91688388949991 95.83509682710107 -164.91401928621858 0 0 0
123 1 1 47.8351597904547 102.15205630604302 -179.084376798349 0 0 0
92 1 1 65.25917321829355 104.9181494510068 -165.9935862577377 0 0 0
135 1 1 36.50664213871816 111.5371666584459 -179.97187959073364 0 0 0
259 1 1 62.66098189953627 70.27974715856739 -151.49404335476 0 0 0
293 1 1 61.85387734621208 64.25959423168433 -153.09799149112706 0 0 0
294 1 1 61.21288669962807 61.066719236860145 -155.2199352452543 0 0 0
295 1 1 61.277858888431254 61.95474489448255 -158.9291262252105 0 0 0
296 1 1 63.135019246047435 64.95784169698051 -160.05019077358318 0 0 0
297 1 1 63.67502363204493 64.27583635911898 -163.77924987357144 0 0 0
291 1 1 67.3202475413151 64.47857543719432 -149.43100266533486 0 0 0
292 1 1 65.54322582927662 65.24566966463074 -152.71111516648398 0 0 0
148 1 1 25.440951701400287 89.49992767521587 -159.46079216646154 0 0 0
46 1 1 47.28556597096186 83.66859057345943 -148.5577654717957 0 0 0
48 1 1 45.563435206454194 83.53860743924625 -154.01296993997298 0 0 0
49 1 1 45.77250560796279 84.30563157628703 -157.836095581113 0 0 0
47 1 1 48.841621365853534 83.5185347622007 -152.0139373432257 0 0 0
50 1 1 49.26355006950515 84.83757918940898 -159.51806649352667 0 0 0
51 1 1 48.62360908097773 88.58180481972826 -159.6489787837473 0 0 0
52 1 1 48.356582829034664 88.85973792761153 -155.87706107186864 0 0 0
53 1 1 51.74677256276748 87.27872654303168 -155.22003090745852 0 0 0
54 1 1 53.47291203482423 89.28293613351997 -157.97206363385658 0 0 0
187 1 1 64.1620565053336 75.54552618294423 -163.46323820575668 0 0 0
196 1 1 51.61554746930593 79.8515036495858 -164.16117944633336 0 0 0
197 1 1 53.623593260699586 77.27147676280681 -162.03802766411093 0 0 0
198 1 1 53.84062552123007 78.18949718353046 -158.28394190269472 0 0 0
199 1 1 54.0737424246107 81.27865575490067 -156.20404329948886 0 0 0
200 1 1 57.721717246416425 80.1296872639337 -155.48801795142512 0 0 0
201 1 1 58.53280302932522 80.13775005209736 -159.23295965869062 0 0 0
202 1 1 56.93074909747839 83.60187469843444 -159.5340191611744 0 0 0
203 1 1 58.8939522362586 84.9779218094017 -156.50693047599995 0 0 0
204 1 1 61.91899922445929 83.51294862400925 -158.16295125577238 0 0 0
205 1 1 61.18407176785419 85.44813389357063 -161.2351501550732 0 0 0
206 1 1 60.452066220212856 88.63710232442969 -159.26116167420855 0 0 0
207 1 1 63.51107281962119 88.62013752481617 -157.02713239018144 0 0 0
252 1 1 63.93706495552379 80.23995689147038 -149.41699491651997 0 0 0
253 1 1 62.13099784158426 80.09888970869847 -152.89284496234313 0 0 0
256 1 1 61.013881700181 75.18974629995503 -151.55298648797637 0 0 0
257 1 1 61.01276755939579 74.41465025046314 -155.28312959745892 0 0 0
258 1 1 63.83009463258138 71.73671450503785 -154.7541655474635 0 0 0
260 1 1 59.04952760223947 71.3557280362674 -150.7210388200843 0 0 0
261 1 1 58.17853911274148 74.29769810041398 -148.33086714642494 0 0 0
174 1 13 75.04455058778944 80.07064866086203 -150.75104406774005 0 0 0
175 1 1 76.03565788556234 83.15684569790905 -152.9081199379288 0 0 0
176 1 1 73.53353642816573 84.95794827867402 -155.1762405312348 0 0 0
177 1 1 75.71367694383719 83.50711768643961 -157.98927697295125 0 0 0
178 1 4 74.89059237348799 79.7847141787804 -157.07510854420616 0 0 0
179 1 1 71.09649653530471 80.64378855186989 -156.6390794215982 0 0 0
180 1 1 71.24255826608946 82.24908208867953 -160.08732503016904 0 0 0
181 1 10 73.01047551254267 79.16086517622338 -161.42427595357222 0 0 0
182 1 20 70.43641201836228 76.78161066913987 -159.79916874856568 0 0 0
183 1 1 67.57927809657481 78.82067128593708 -161.30726242325792 0 0 0
185 1 2 70.17636237359142 74.92263212843098 -164.38926580776936 0 0 0
186 1 6 67.0172243262059 73.1134917633126 -162.9702230452126 0 0 0
208 1 1 66.03320233610842 88.13223250220837 -159.94934614719125 0 0 0
246 1 1 68.4469854094337 88.42113274988903 -151.47277588095747 0 0 0
247 1 1 70.4371122634514 85.37200221410939 -150.3819255733344 0 0 0
249 1 1 64.8949618021777 85.37407232564986 -150.32875436906758 0 0 0
250 1 1 66.26603395153427 83.49486580250463 -153.3728472294749 0 0 0
251 1 1 67.38811512183962 80.5347837532733 -151.10487854767624 0 0 0
254 1 1 64.7599570260818 77.92272853144611 -154.5599004404338 0 0 0
255 1 1 64.82618480615307 75.5407767450879 -151.7479680320716 0 0 0
147 1 1 23.41883119115469 90.68796812643893 -162.5239794739982 0 0 0
149 1 1 27.982974262701802 91.57097229015882 -157.31776771670667 0 0 0
33 1 1 45.918622018546586 103.2533911570033 -155.208875069008 0 0 0
34 1 1 47.30171737032131 99.82130240808745 -153.93685584234413 0 0 0
35 1 1 46.63179939459114 101.00236884226418 -150.35869732090435 0 0 0
36 1 1 43.09954795805984 102.43933159965597 -151.09779915714623 0 0 0
37 1 1 41.56840454194426 99.64313278519478 -153.1679481261805 0 0 0
38 1 1 43.75742389303198 96.61405195463777 -152.28379361729384 0 0 0
39 1 1 44.492559850661564 96.81206967620368 -148.51862265563756 0 0 0
41 1 1 45.749446900668545 91.97198612107479 -150.41269714810292 0 0 0
105 1 1 46.653715533706524 96.16211077211265 -160.57014251973413 0 0 0
106 1 1 44.824632272016466 96.4802103742471 -163.91190839565186 0 0 0
107 1 1 44.807722221351185 92.72290377267166 -164.45094301246382 0 0 0
108 1 1 43.77856315372177 91.9808026631388 -160.87390305064045 0 0 0
109 1 1 40.96247432642618 94.54707541555703 -161.03280775446885 0 0 0
25 1 1 50.2906955607034 106.32152138884857 -162.55113330645628 0 0 0
26 1 1 53.19780041697177 107.6685861032087 -160.44396811172732 0 0 0
27 1 1 55.52887871685704 106.12251057367914 -157.93773838599202 0 0 0
28 1 1 53.415020725714186 107.67247333487309 -155.13570529961405 0 0 0
29 1 1 50.08485281448018 107.03749674094317 -157.06376099664317 0 0 0
30 1 1 50.34484242825325 103.32541975548263 -157.5928359793947 0 0 0
31 1 1 51.39004619703051 102.98851070208832 -153.8967023450008 0 0 0
32 1 1 48.29786355635745 105.13542954854118 -152.92873676758995 0 0 0
42 1 1 48.93276299269586 93.80512456197462 -149.23270947222372 0 0 0
55 1 1 51.970995038339034 92.48193658544591 -156.6309861942175 0 0 0
56 1 1 53.34809472366455 91.91411605517149 -153.1478778074995 0 0 0
57 1 1 56.7910239506069 91.06612070145572 -154.4548828437458 0 0 0
58 1 1 56.87704989185804 94.19706163594292 -156.6729603104724 0 0 0
59 1 1 56.32518739785018 96.56815467354232 -153.73564547165248 0 0 0
60 1 1 59.13098595192181 94.71719047744953 -151.96566274648114 0 0 0
61 1 1 61.49393264967889 94.9690086933086 -155.03975993508936 0 0 0
62 1 1 61.24185112072042 98.85813973643205 -154.96062135817942 0 0 0
63 1 1 61.636835592790945 98.64227060630837 -151.19653774972392 0 0 0
90 1 1 61.775940332598076 107.36134370332701 -160.72815286305973 0 0 0
91 1 1 62.59102755628123 107.33723949993782 -164.52633666836957 0 0 0
94 1 1 61.15999673977535 103.18121237567276 -162.04520013010168 0 0 0
97 1 1 58.43106225225294 99.39403437257887 -161.83613749661978 0 0 0
98 1 1 55.42108611106626 101.600131631293 -162.75810140556183 0 0 0
100 1 1 54.973108961599884 96.00408360833457 -163.58518267126647 0 0 0
101 1 1 52.70289696848215 97.14206070973474 -160.5231974861307 0 0 0
102 1 1 50.20579653185565 99.04517409471175 -162.8541402758069 0 0 0
104 1 1 49.23786665728225 93.70502810327899 -161.96006783702376 0 0 0
209 1 1 64.3192373033838 91.25397824701179 -161.63436856288357 0 0 0
64 1 1 65.208842938276 97.44608511766612 -151.36254335287748 0 0 0
65 1 1 65.69185209079717 99.89013633916397 -154.31971207138065 0 0 0
66 1 1 64.55377868105302 102.99616377162478 -152.56047763366195 0 0 0
67 1 1 66.38578492641825 101.88925870288962 -149.36547058054143 0 0 0
68 1 1 69.67380773782006 101.9912194813776 -151.60246268215016 0 0 0
69 1 1 68.53774474967615 105.24618003566854 -153.381632151108 0 0 0
70 1 1 68.02470036110101 106.90005941404975 -149.98247480093562 0 0 0
71 1 1 71.39287435268749 105.62213846944665 -148.67443243183706 0 0 0
72 1 1 73.25503649974468 106.64916370251649 -151.80852944888912 0 0 0
88 1 1 67.03705855920062 107.95632244593489 -162.31543994471232 0 0 0
89 1 1 65.14482944708693 105.79930160149092 -159.82124878881626 0 0 0
93 1 1 64.61812321617701 102.09108205909149 -163.59252978574457 0 0 0
210 1 1 64.74210895633892 92.87692843656048 -158.21622940454057 0 0 0
211 1 1 68.48023724740455 92.1399806381425 -158.00433080347 0 0 0
212 1 1 69.02931042915894 93.14993447977746 -161.55750839038362 0 0 0
213 1 1 67.73520212083454 96.6717883616522 -161.27240714358874 0 0 0
214 1 1 69.67411358827108 96.84376108264955 -157.92337856234226 0 0 0
215 1 1 72.92225540026215 95.92173607038673 -159.64945974464632 0 0 0
216 1 1 72.29523561550508 98.37177938558095 -162.58860862876492 0 0 0
217 1 1 71.58714583538894 101.23783997434043 -160.08950572844202 0 0 0
218 1 1 74.8572144661351 100.44179859756821 -158.08239958597184 0 0 0
219 1 1 76.74416266482932 100.2178256430895 -161.31952369546983 0 0 0
220 1 1 75.37417842591137 103.43097134468542 -162.7965130740942 0 0 0
221 1 1 76.20922078183277 105.20518130150933 -159.44148847467258 0 0 0
222 1 1 79.62615607791493 103.59991348879083 -159.38437999299074 0 0 0
223 1 1 80.09618868210167 104.73012718584168 -162.97257803036683 0 0 0
224 1 1 79.29719377532162 108.34331488509108 -162.03249888598785 0 0 0
233 1 1 81.44144982644012 101.37692805713219 -150.6475755437288 0 0 0
234 1 1 78.26929961962416 101.27203633058149 -152.83775148473183 0 0 0
235 1 1 78.9434049103487 97.8346297112985 -154.1230088345423 0 0 0
236 1 1 79.71944380457158 96.30770472826994 -150.72874427943648 0 0 0
237 1 1 76.37321288468088 97.79379813122763 -149.43747908004764 0 0 0
238 1 1 74.64024732414575 95.91185525121126 -152.33477677240617 0 0 0
239 1 1 76.41943463378209 92.53386086696777 -151.55088762577813 0 0 0
242 1 1 70.88600504335857 94.64902214285759 -149.25053674394076 0 0 0
243 1 1 72.35021315731407 91.35701690397521 -150.55475316129892 0 0 0
225 1 1 81.80131105400844 108.5394259257872 -159.1802958531359 0 0 0
226 1 1 85.47837404196854 108.77232324595992 -159.9752605323752 0 0 0
227 1 1 86.58448809308986 107.45331533727179 -156.6060361389468 0 0 0
228 1 1 87.33752849429763 103.53097539376171 -156.5600371443099 0 0 0
229 1 1 86.7424047621323 103.40698906595316 -152.72673305949505 0 0 0
230 1 1 83.3434828345136 105.1361425294505 -153.02766747510697 0 0 0
231 1 1 82.38338214925862 102.39186399533948 -155.74704770933224 0 0 0
232 1 1 83.69449377097799 99.66580007393158 -153.3338325039723 0 0 0
73 1 1 71.83693376525778 110.27920023780645 -151.54856049774426 0 0 0
75 1 1 76.57126483089333 109.16314002175449 -148.9123969283273 0 0 0
76 1 1 76.62330611477904 111.9073312722936 -151.67065827195586 0 0 0
77 1 1 77.56334720643427 115.42631264615746 -150.57673709680216 0 0 0
78 1 1 76.00829919331215 117.19543762326145 -153.60993704468333 0 0 0
79 1 1 72.2719737219569 118.33849417197318 -153.3699498521672 0 0 0
80 1 1 71.98499297388966 118.39052339265066 -157.184144464031 0 0 0
81 1 1 73.13621480762006 114.70144216687156 -157.59017549093622 0 0 0
82 1 1 70.51487816812498 113.66942027497065 -154.91601041641573 0 0 0
83 1 1 67.92265921826782 115.00046712967553 -157.30308828390068 0 0 0
84 1 1 69.59589905114301 113.03237249912418 -160.0314376847235 0 0 0
85 1 1 69.50691707396227 109.71336906309854 -158.1181865487718 0 0 0
86 1 1 65.72668724831642 109.97347127885953 -157.19396418566177 0 0 0
87 1 1 65.13481710837561 111.05643137897079 -160.85920924415592 0 0 0
263 1 1 60.415677791494275 70.0335787555615 -145.47980847194842 0 0 0
284 1 1 79.74631228921369 69.63380436354532 -133.25907241441723 0 0 0
285 1 1 78.08425368432349 69.04279583505307 -136.71122652985784 0 0 0
287 1 1 72.1792989169413 69.94166377708083 -139.24410023470918 0 0 0
288 1 11 72.62729164286178 68.82871274122846 -142.92121565931726 0 0 0
289 1 1 70.14850111460575 69.57173731972429 -145.76008319887129 0 0 0
290 1 1 67.46928128332853 66.89757195321266 -146.42296120753983 0 0 0
44 1 1 47.68850472548348 88.58581393429417 -147.05958487840306 0 0 0
45 1 1 48.83364621134463 85.34873305023821 -145.3336498039657 0 0 0
154 1 1 58.039095576144526 89.34518772249199 -147.16262068539183 0 0 0
155 1 1 57.31888136712545 85.70300823868389 -146.12569144380836 0 0 0
156 1 1 53.93593621781068 86.19790678375995 -144.54159632474824 0 0 0
157 1 1 52.079780715627294 84.65767368718997 -147.5276210868294 0 0 0
158 1 1 54.62375045995335 81.91276359039337 -147.69370789290906 0 0 0
159 1 1 54.183633680718096 80.66375781047383 -144.1006653374963 0 0 0
160 1 1 57.38575987873455 82.20400757743829 -142.61361611892391 0 0 0
161 1 1 59.11877760315849 85.02509830357776 -140.71758212025043 0 0 0
162 1 1 61.971946870060975 87.51833171195953 -141.2196296136554 0 0 0
163 1 1 62.67791592126902 86.96031150288762 -137.54457736989588 0 0 0
164 1 1 63.835759265514604 83.31520290014095 -138.25465593435618 0 0 0
262 1 1 57.26647922323347 72.21676699218669 -145.17783644406757 0 0 0
264 1 1 62.62485812857976 73.2407638901304 -145.5779066940954 0 0 0
265 1 1 61.05671228033864 75.00488738781031 -142.59466706548875 0 0 0
266 1 1 61.2886317946178 71.86670891827417 -140.3617711860414 0 0 0
269 1 1 63.31473006035417 74.81988615739075 -137.02773593107267 0 0 0
165 1 1 65.34403799983359 84.0881455202444 -141.66463858861377 0 0 0
166 1 1 67.58401100980294 86.94339705439344 -140.45460804852647 0 0 0
167 1 1 68.833110065152 84.95835881057984 -137.32860806246103 0 0 0
168 1 1 70.78340395964298 82.61417293246068 -139.6338163917974 0 0 0
169 1 23 74.56541744360027 83.28004591714912 -140.43377103747585 0 0 0
170 1 1 75.60647356027275 84.7229728525339 -143.79462769102514 0 0 0
171 1 1 77.94549659771546 81.68183503537863 -144.59187512596847 0 0 0
172 1 8 75.04645778351909 79.27381425131641 -144.16884902835147 0 0 0
173 1 1 73.48036302004819 80.79069566665095 -147.36882580475122 0 0 0
244 1 1 72.09113538216926 89.29318200445965 -147.4476606507908 0 0 0
245 1 1 68.28705813986804 89.71229389219434 -147.83373072694454 0 0 0
248 1 1 67.60998501297573 84.62902875401957 -147.82882210114218 0 0 0
267 1 1 64.96989462424088 71.81469619178488 -141.37678213883277 0 0 0
268 1 1 65.2299130445655 75.44293809456606 -140.3337737764748 0 0 0
270 1 1 65.67476035307851 71.9236304843458 -136.10173696761993 0 0 0
271 1 1 68.69704156393996 74.19288656063401 -137.11584164832587 0 0 0
272 1 1 67.34678622608591 76.98509719160178 -134.88683748698935 0 0 0
274 1 1 71.0029583200724 74.15482111031959 -132.19780027430116 0 0 0
275 1 1 72.06312430662496 77.849319361176 -132.69377588593386 0 0 0
286 1 18 75.38836200339304 71.48976966953082 -137.9771614887564 0 0 0
40 1 1 44.02849531500763 93.26199545291767 -147.2836546440201 0 0 0
43 1 1 48.63868097855155 92.05710926030687 -145.74745298124373 0 0 0
150 1 1 50.27409166035799 97.65232287980604 -144.24642861428356 0 0 0
151 1 1 53.78914946840468 97.87434337922114 -145.58845467682266 0 0 0
152 1 1 54.766183313443854 94.27341335337823 -146.7035034048009 0 0 0
153 1 1 56.25013754497219 91.47823588946537 -144.53055571997842 0 0 0
240 1 1 75.96726701838335 92.89009108608691 -147.6925861356421 0 0 0
241 1 1 73.24317693835535 95.24308067904285 -146.28745475731083 0 0 0
74 1 1 73.0140480376537 110.28815228777854 -147.87444777624208 0 0 0
283 1 1 76.72619552309135 68.42361850518141 -131.07892402600655 0 0 0
273 1 1 67.27067712212889 75.08995983970138 -131.518616248726 0 0 0
276 1 1 69.91387263161383 78.79832335476682 -129.65163347987888 0 0 0
277 1 1 71.80285850695937 76.02514872222079 -127.66568417734527 0 0 0
278 1 1 75.19210998021495 77.45730935338246 -126.32271045805601 0 0 0
279 1 1 78.22035579975687 76.01125034338494 -128.20487920986 0 0 0
280 1 1 79.49624902360962 73.46199581132566 -125.633769299744 0 0 0
281 1 1 76.0430806859514 72.18280534214085 -124.93256832512127 0 0 0
282 1 1 75.33709683914945 71.05569651610827 -128.4818037480648 0 0 0
572 1 1 113.95108413798584 73.09187219371216 -50.99017167074462 0 0 0
579 1 1 115.29310321679745 70.70179668721167 -59.64925687562868 0 0 0
580 1 1 113.19794297831707 72.39579350187643 -56.81228031927626 0 0 0
581 1 1 109.50465107381319 73.07990084040006 -57.702293231075785 0 0 0
582 1 1 109.51072921628938 76.73216945419449 -58.57924488483904 0 0 0
583 1 1 107.3417378447512 78.22625413045829 -55.84422412810085 0 0 0
584 1 1 108.67571793669246 77.980379632385 -52.251246278611596 0 0 0
573 1 1 116.76229122780327 75.44912843777475 -50.67115081011406 0 0 0
574 1 1 119.38749603153438 72.58684625877686 -50.70802287843741 0 0 0
575 1 1 117.85225636788445 71.22672008669579 -53.992171932381055 0 0 0
576 1 1 119.31633232185477 73.26995416000995 -56.91219847378052 0 0 0
577 1 1 117.04025983925486 76.04322912493502 -58.51933544949315 0 0 0
578 1 1 116.14409852564684 73.80802140039694 -61.47941393162603 0 0 0
560 1 1 103.58172846140857 70.19645431357301 -35.65191661815521 0 0 0
564 1 1 106.73886890412744 70.09451393567619 -40.93517199563363 0 0 0
589 1 1 96.59085043393574 78.67917097443707 -43.75326116537742 0 0 0
590 1 1 95.16477013817133 79.58217382724139 -40.259002881779864 0 0 0
591 1 1 94.02859657628956 76.15884827483815 -38.69987238036921 0 0 0
592 1 1 90.27973324900886 76.63290653348997 -38.45380990876817 0 0 0
593 1 1 89.92479684365527 78.33911417462313 -42.05100968939174 0 0 0
594 1 1 87.72070376615162 76.5809391791433 -44.586040327468325 0 0 0
595 1 1 89.76782927552809 77.71702235353473 -47.610242729979404 0 0 0
596 1 1 92.60098827029816 75.40884311438914 -48.691325823679826 0 0 0
470 1 1 115.40906667746896 83.56241998392609 -43.14943495122959 0 0 0
471 1 1 114.01997396731358 84.53613419625239 -39.704514577269315 0 0 0
472 1 1 112.41291527729413 88.15624045257641 -39.280569031579844 0 0 0
477 1 1 108.50495923108487 89.71841295345992 -33.77032194269267 0 0 0
545 1 1 114.67210331513466 85.68804964759924 -34.09109496683881 0 0 0
546 1 1 114.68118598807702 81.86788413820175 -34.010999799887976 0 0 0
549 1 1 109.16596355267978 83.31398220747535 -34.254261727716816 0 0 0
553 1 1 104.12884349656137 80.55005984118034 -34.95419906643624 0 0 0
556 1 1 99.42660242017504 80.56804329811337 -34.70704773269925 0 0 0
557 1 1 99.69175762100788 77.19792751558779 -36.62696876218692 0 0 0
558 1 1 100.47859636877395 74.67869864949792 -33.72487630989956 0 0 0
561 1 1 102.68875938320728 72.13255108614156 -38.905048591037186 0 0 0
562 1 1 105.57085353975933 74.55983280767606 -38.14108731265516 0 0 0
563 1 1 108.15480861014952 71.68248629627405 -37.6740263191092 0 0 0
565 1 1 107.13974095374704 73.60675756426875 -42.49117433915945 0 0 0
566 1 1 110.71094319579456 74.1678356156388 -41.18812902873152 0 0 0
567 1 1 111.9769292146079 70.83353906616337 -42.374103767915955 0 0 0
568 1 1 110.26382052430615 70.87853079695704 -45.7361223383101 0 0 0
569 1 1 111.98896702992339 74.14690372697548 -46.37516943226165 0 0 0
571 1 1 115.35816790476395 70.49458485663908 -48.42406852700719 0 0 0
585 1 1 106.96366324332874 76.02707292983007 -49.33613827137546 0 0 0
586 1 1 104.75279171084736 78.53930968177288 -47.493248641234615 0 0 0
587 1 1 102.82084805365352 78.40330894828546 -44.29837003199996 0 0 0
588 1 1 99.73497833030973 80.66833905472603 -44.22832025324527 0 0 0
461 1 1 119.6945251445179 71.2856116368879 -36.33902874592757 0 0 0
462 1 1 116.20022496496544 71.9275646114177 -37.52094190186254 0 0 0
463 1 1 116.78429645519658 75.77598400027752 -37.14391693604509 0 0 0
464 1 1 120.24960606417686 75.39392317767825 -38.636987956234826 0 0 0
465 1 1 118.74947538928423 73.79277003043077 -41.69600894640476 0 0 0
466 1 1 116.94635260536297 77.1251315257295 -42.54516787485915 0 0 0
467 1 1 118.90535847822001 79.95131419326495 -44.24424745192231 0 0 0
468 1 1 120.37239650488759 82.136174803499 -41.38834041084001 0 0 0
469 1 1 118.86616154618045 85.29413627367224 -42.810434609835056 0 0 0
542 1 1 120.0634594943236 85.68789308690843 -34.21312054988739 0 0 0
570 1 1 115.55821642053755 73.06682023241616 -45.70903899713139 0 0 0
473 1 1 113.84200648191896 90.91043787941265 -37.01350832870207 0 0 0
476 1 1 109.29492244627772 92.77356846731136 -36.01641677236519 0 0 0
480 1 1 103.98269496442722 90.41540419709425 -34.24337545407493 0 0 0
538 1 1 123.40333714175098 91.27116299967093 -34.407394177010204 0 0 0
342 1 1 114.94306367059556 66.2933521706424 -20.213089442477866 0 0 0
343 1 1 113.07096566295114 66.96944274839373 -23.57715410718156 0 0 0
344 1 1 109.85974783012243 66.55847549793351 -21.56408044171625 0 0 0
345 1 1 107.61660351770794 69.68053379560953 -20.783005173504826 0 0 0
454 1 1 114.18609310608011 70.12359803626768 -26.80916178951461 0 0 0
457 1 1 110.18978907620551 69.19855916128954 -29.244970328016493 0 0 0
341 1 1 117.88836457552495 68.72351309913813 -19.304134742801278 0 0 0
484 1 1 98.41549084469767 88.74916904484319 -32.50425516666033 0 0 0
487 1 1 96.21340705496915 89.4350921781375 -24.14604504759886 0 0 0
493 1 1 96.7103559186898 84.76098509197774 -19.683892686151598 0 0 0
494 1 1 97.28342118011768 80.9567736763062 -20.046911446813056 0 0 0
351 1 1 110.20476260447353 76.04886437881026 -18.5949666096268 0 0 0
354 1 1 115.29526292252042 76.51208242752556 -18.44015920033837 0 0 0
355 1 1 114.97620986513785 79.91201806577261 -19.982057798767958 0 0 0
453 1 1 113.99112942302379 73.74783066099641 -28.18915696083572 0 0 0
455 1 1 111.28979933500071 70.73561901774265 -24.293241525868684 0 0 0
456 1 1 109.11590274101124 72.17554778190495 -27.153113083708455 0 0 0
458 1 1 112.8190855209513 70.42859141822247 -31.632079774985762 0 0 0
481 1 1 103.33177627858097 89.36743378360433 -30.68126459643762 0 0 0
485 1 1 98.61238770427713 87.82315250669923 -28.834249510686508 0 0 0
488 1 1 99.07543846404815 87.05200626271662 -23.201070359296562 0 0 0
492 1 1 99.17647084691792 86.63797697380556 -17.141781500760064 0 0 0
495 1 1 99.94954961605842 78.6675813315885 -18.482909987193974 0 0 0
496 1 1 99.93744226726588 76.46357115061181 -21.676896277537516 0 0 0
497 1 1 103.5665582375821 75.76466519690813 -22.973922763816233 0 0 0
498 1 1 103.98072978481586 78.42274045874767 -25.497927196073054 0 0 0
499 1 1 102.14759165766647 81.31070835244415 -23.688971238675997 0 0 0
500 1 1 104.23781435867923 80.81279047298759 -20.73797078961633 0 0 0
501 1 1 107.3999005531526 80.44791924539935 -22.913000774083795 0 0 0
502 1 1 106.70109918008251 83.72695876895496 -24.989988943079997 0 0 0
503 1 1 106.70213579745196 85.9942589701324 -21.86788855338714 0 0 0
504 1 1 109.9300492635031 84.44013481598049 -20.67699181354706 0 0 0
505 1 1 111.53599595426653 84.99209764520272 -24.08093711106617 0 0 0
506 1 1 110.49802621808026 88.70024183688776 -24.079717280236544 0 0 0
507 1 1 111.8699685859256 89.04540088578416 -20.59694475566377 0 0 0
508 1 1 115.21492811317917 87.47621825517689 -21.708944353028347 0 0 0
547 1 1 113.0752588501543 81.8149304886114 -30.590012260140913 0 0 0
548 1 1 110.33310117585404 84.45984668615604 -30.788165406664127 0 0 0
550 1 1 108.79393499838719 79.78189815107417 -33.13017922224027 0 0 0
551 1 1 106.67484214259096 80.67688741035785 -30.16511331321826 0 0 0
552 1 1 104.62381432629647 83.10784098579738 -32.179214735481644 0 0 0
554 1 1 103.37371670649915 77.67587802488676 -32.48801646644135 0 0 0
555 1 1 100.39853631140492 79.83494059854097 -31.116047279808328 0 0 0
559 1 1 103.97370227502044 73.3775703001166 -33.447980957306456 0 0 0
358 1 1 120.27732129264975 80.68184447830801 -20.522084691123705 0 0 0
359 1 1 119.2961171036371 84.35179884300378 -19.921031880501115 0 0 0
361 1 1 124.37442097763491 83.23473521359398 -19.642155612258794 0 0 0
362 1 1 123.76736033298629 86.06463772674851 -22.102007513952742 0 0 0
363 1 1 123.96911423092288 88.83665980461382 -19.427045739825356 0 0 0
364 1 1 127.38933470787026 87.37751035890317 -18.342063506915153 0 0 0
365 1 1 128.489358766047 87.1044256366778 -21.97411577885252 0 0 0
448 1 1 124.38463316159913 73.77282522442236 -17.594231272496806 0 0 0
449 1 1 123.86858678348237 75.21382158269186 -21.157155834451128 0 0 0
450 1 1 120.64356369137164 73.51491040172935 -22.091218280453923 0 0 0
451 1 1 119.58448090846919 72.46686576978564 -25.65218894544917 0 0 0
452 1 1 116.90940829018928 75.19497184225744 -26.17516203596157 0 0 0
459 1 1 116.58325500819078 70.49164144935366 -32.154969818942945 0 0 0
460 1 1 119.11948748075206 73.22287672504277 -33.14697679603679 0 0 0
539 1 1 125.24449247444215 88.35973129883504 -32.8502900447778 0 0 0
540 1 1 122.94140773385624 87.62267224674574 -29.92027248528701 0 0 0
541 1 1 119.79628107339317 88.48094552695767 -31.757207832992297 0 0 0
543 1 1 118.66532552216788 83.2147164271435 -31.527985420797997 0 0 0
544 1 1 115.84024767017547 85.61277563664588 -30.4740786651886 0 0 0
486 1 1 98.37755542114472 91.08229969736168 -26.91110438316076 0 0 0
491 1 1 97.73354437849991 89.82034082955666 -18.781860042021226 0 0 0
299 1 1 100.31296274593123 98.02943618233247 -20.23694460909949 0 0 0
300 1 1 102.6759621240084 95.07559187197782 -19.83493956308497 0 0 0
474 1 1 113.44107331750423 90.61336616034544 -33.243240801945866 0 0 0
475 1 1 111.81792519748166 94.08370023462085 -33.43817514330171 0 0 0
478 1 1 107.94879686903516 91.9615864234805 -30.703085600386416 0 0 0
479 1 1 105.50084737093451 93.78053336020287 -32.878163253088736 0 0 0
482 1 1 101.69381890667711 92.62045778632572 -29.945241434134022 0 0 0
483 1 1 99.44367868177021 92.42831067699346 -32.93725944317297 0 0 0
489 1 1 101.39875553413349 90.11444960579654 -23.256897045865834 0 0 0
490 1 1 99.3257568985026 92.50749617659703 -21.033865374055583 0 0 0
509 1 1 115.46180210968163 90.00115701836307 -24.461812438384896 0 0 0
510 1 1 114.20177227681573 92.86044052487658 -22.107880058672343 0 0 0
366 1 1 127.36026613278841 90.61654952535046 -22.746065898417868 0 0 0
367 1 1 129.0773207641444 91.85774875829013 -19.518013564025726 0 0 0
368 1 1 132.41437421452366 90.26353307481362 -20.566083290120094 0 0 0
369 1 1 132.26549126184148 91.56564925520594 -24.158306776059423 0 0 0
370 1 1 132.10047260728282 95.07173442715711 -22.70820249961353 0 0 0
511 1 1 116.94357063022521 92.25423050871478 -19.554910266443443 0 0 0
512 1 1 119.54260220909346 92.2030802927805 -22.440909583575078 0 0 0
513 1 1 118.09652305016104 95.53637577667865 -23.688951719802247 0 0 0
514 1 1 117.99347862922384 96.98945907152508 -20.10883103601479 0 0 0
515 1 1 121.67365604848796 96.19237551301055 -19.479797109095635 0 0 0
516 1 1 122.78171950381203 97.1553576610792 -23.13400401243333 0 0 0
517 1 1 120.83344615105278 100.48030706624418 -22.80393092432406 0 0 0
518 1 1 122.4336718390769 100.75242543699802 -19.306721567899125 0 0 0
519 1 1 126.02576018708127 100.42848209496364 -20.76174623745759 0 0 0
520 1 1 124.60569143127624 102.66935613476743 -23.40191388989758 0 0 0
521 1 1 123.54668359880499 105.44841024922407 -21.104804329946507 0 0 0
522 1 1 125.98587174350726 105.11951319310191 -18.21058257868458 0 0 0
523 1 1 129.28593265479117 104.89051958957289 -19.966691634820044 0 0 0
524 1 1 130.3710115484503 108.27952819896626 -21.707860787172322 0 0 0
528 1 1 130.09213569671863 105.52733858438951 -29.879515921365908 0 0 0
529 1 1 127.4549801428584 104.43143782680342 -27.358334556235768 0 0 0
530 1 1 125.25985197839303 102.28035669957517 -29.636558398059247 0 0 0
531 1 1 128.03018206695248 99.49824661756793 -29.910577049742507 0 0 0
532 1 1 126.66614326824941 97.14308913809677 -27.207463748990634 0 0 0
533 1 1 123.11686678607855 97.59225839920505 -28.389499749935755 0 0 0
534 1 1 124.26893757693016 96.94011831615886 -32.00755838911801 0 0 0
535 1 1 125.96222356268214 93.69987941314456 -30.625544653972568 0 0 0
536 1 1 122.57812624559301 92.40109762702397 -29.192465179108925 0 0 0
537 1 1 120.66015431145634 93.12527681396817 -32.43239577640995 0 0 0
371 1 1 135.32048909273018 94.50077073792835 -20.878100155870722 0 0 0
372 1 1 137.2313864613954 93.26569166996536 -23.94023446319083 0 0 0
373 1 1 135.76144547258784 95.66579290419463 -26.545479170839343 0 0 0
374 1 1 136.09954849684036 99.08308060965386 -24.565282717788513 0 0 0
375 1 1 139.57848142074448 100.3450056104693 -23.86424978773945 0 0 0
376 1 1 138.55843815632835 103.77626323042165 -22.561108770062237 0 0 0
377 1 1 136.89831782035003 103.13433756662268 -19.072814741564954 0 0 0
525 1 1 133.9732844767081 107.36748050656446 -22.235958067694316 0 0 0
526 1 1 133.33219501253092 105.30844954906412 -25.419214704998307 0 0 0
527 1 1 133.04516125024037 107.46733987706861 -28.470342545028526 0 0 0
339 1 1 114.34694923052959 67.11434278081923 -15.455827627811884 0 0 0
346 1 1 107.57547468535176 69.11054728790731 -17.007836252560782 0 0 0
334 1 1 121.42831623143054 69.77768808251008 -7.451682162657198 0 0 0
335 1 1 117.81802892912062 68.8264369413213 -7.163577613802396 0 0 0
336 1 1 116.40601032241817 69.17347259377722 -10.742678884077897 0 0 0
337 1 1 119.21429307451817 68.40345822054354 -13.33098166867619 0 0 0
338 1 1 117.80719987811015 65.47241725568513 -15.292907040787174 0 0 0
304 1 1 106.37987212170886 86.8142205935071 -12.332854635261958 0 0 0
305 1 1 102.46968075325422 87.07415735281477 -11.966745143363973 0 0 0
306 1 1 101.58155737379752 84.0819198469271 -14.132744987156132 0 0 0
307 1 1 103.31156366526552 82.00289855953037 -11.451893636353862 0 0 0
308 1 1 101.38343601903962 83.62401251339712 -8.687961768942015 0 0 0
309 1 1 103.773580822772 86.14723230722426 -7.4210844405066965 0 0 0
314 1 1 109.1569609286616 89.1213925440576 -3.12403118150042 0 0 0
347 1 1 105.99157115490263 72.036628131464 -14.943894382252404 0 0 0
348 1 1 105.91359028553497 75.63461205703229 -16.370934682429787 0 0 0
349 1 1 108.32166220936192 76.46877828947453 -13.492864198993713 0 0 0
350 1 1 110.88480194249854 74.2588256606054 -15.249916520426888 0 0 0
352 1 1 110.80999408222289 79.37006886709985 -16.949020457649873 0 0 0
353 1 1 114.03294322415087 78.1290314034872 -15.121061421754476 0 0 0
397 1 1 113.99190691907697 86.49810820512778 -6.783999185404389 0 0 0
398 1 1 113.3240432078486 84.5262264195573 -10.021993340851004 0 0 0
400 1 1 114.76391069785804 81.29792334359284 -5.640715354029716 0 0 0
401 1 1 111.03304359925646 81.50594664202957 -6.304865883696006 0 0 0
402 1 1 110.69392202536655 79.13101589499703 -9.268968620277143 0 0 0
403 1 1 112.67898943573084 76.53378162589173 -7.430728327397678 0 0 0
404 1 1 110.66013241569772 77.11584834471618 -4.283723800353835 0 0 0
405 1 1 107.2607103862324 76.75471423459966 -5.919917688980585 0 0 0
406 1 1 108.30974896890847 73.54249414138077 -7.624996468326202 0 0 0
407 1 1 109.92498154612164 72.23248881159898 -4.324860690692264 0 0 0
408 1 1 107.65293601364502 73.41173264015434 -1.5229513025948174 0 0 0
409 1 1 104.27156569873581 74.23165703419428 -3.2220323669266433 0 0 0
410 1 1 102.91450072658857 77.575698364787 -4.372995526907352 0 0 0
411 1 1 100.54134646845962 78.3207608270535 -1.374988165497903 0 0 0
322 1 1 117.95418412419662 85.40799149217814 -1.0984317967084438 0 0 0
323 1 1 121.03933442013806 83.27980530168472 -1.6454612868025316 0 0 0
324 1 1 123.54655224312464 84.61691974109635 -4.224661603777873 0 0 0
325 1 1 123.17653461125605 83.70993412274534 -7.995795648494036 0 0 0
326 1 1 126.05369074342265 81.17887605170885 -7.595880494581876 0 0 0
327 1 1 123.9635015121144 79.35089558022234 -4.909606418388546 0 0 0
328 1 1 120.69133586303785 79.10282516718782 -6.829666675666858 0 0 0
329 1 1 122.44157349384272 77.83790228491631 -9.972963211629851 0 0 0
330 1 1 123.98157230266357 75.19673805997631 -7.757799102378709 0 0 0
331 1 1 120.36032698976237 74.49361075019826 -6.250571952378379 0 0 0
332 1 1 118.87727721829106 74.07267505432553 -9.729783082150494 0 0 0
333 1 1 121.48445186977882 71.4526209818489 -10.748865802972466 0 0 0
340 1 1 115.90113817651121 70.52964971859898 -16.572932797714877 0 0 0
356 1 1 116.32310982909678 81.78202661939272 -16.95508404963798 0 0 0
357 1 1 119.62927776849216 79.8889409006746 -16.75827475277455 0 0 0
360 1 1 121.90631216303208 84.49087225571144 -17.05817556380504 0 0 0
395 1 1 117.71486043863123 87.05522575000967 -10.793033255682657 0 0 0
396 1 1 117.83495505555703 85.92615641933095 -7.123919426047869 0 0 0
399 1 1 115.60997859472668 81.5111684662337 -9.464929100752949 0 0 0
301 1 1 102.34388252745869 92.37047504131915 -17.104818840967756 0 0 0
302 1 1 104.74798949322938 92.3015393522894 -14.134939706327273 0 0 0
303 1 1 107.71511565801298 89.86746442866219 -14.20494202633947 0 0 0
310 1 24 103.85566038762741 89.96333032383737 -7.289920257327474 0 0 0
311 1 1 107.25882036376004 91.55648651446468 -6.969124825263897 0 0 0
312 1 16 106.07284867645629 93.5294745164219 -3.9789340562468976 0 0 0
313 1 19 105.61763673746027 90.25542095849698 -1.9629472659725882 0 0 0
315 1 1 110.61502184588203 92.50554800931428 -1.9699649688551095 0 0 0
382 1 1 132.19521591848456 97.95831949430122 -13.565467835132086 0 0 0
383 1 1 129.54215083541033 96.20807306893498 -15.706591700795041 0 0 0
384 1 1 130.46834402136034 92.68882956315971 -14.38459729828505 0 0 0
385 1 1 129.9571466184942 94.15400289564073 -10.774501096373724 0 0 0
386 1 1 126.68206998407443 95.77525440778014 -11.879492031608484 0 0 0
387 1 1 125.53214829709563 92.3540978890601 -13.179557700593936 0 0 0
388 1 1 126.47338568671485 90.33211337824615 -10.01566889480307 0 0 0
389 1 1 124.8952132141294 92.90128973466754 -7.723754780178602 0 0 0
390 1 1 122.311904278852 95.14745858417577 -9.359706800929077 0 0 0
391 1 1 121.12475287165167 92.8634303764744 -12.327717921224135 0 0 0
392 1 1 121.55599310199891 90.01018597555526 -9.887831009554946 0 0 0
393 1 1 118.95605397173465 90.87944292386966 -7.248936145022849 0 0 0
394 1 1 116.03990040539004 90.25941837485745 -9.554119526275084 0 0 0
378 1 1 139.3113775403527 103.13423438141032 -16.242717716474058 0 0 0
379 1 1 137.38334624300828 100.19013642574328 -14.762581441499542 0 0 0
380 1 1 137.00350310446757 96.99600129643088 -16.726728652791703 0 0 0
381 1 1 134.98638538617345 95.41491068033396 -13.896546713700733 0 0 0
440 1 1 109.1521622139543 68.80978094558286 3.093988550352081 0 0 0
441 1 1 109.81222888784833 66.6468645832435 6.178046702855617 0 0 0
442 1 1 106.11880357255114 67.4169127935989 7.507084343084905 0 0 0
443 1 1 104.77974574118417 65.45679789897657 4.4639368322415685 0 0 0
444 1 1 107.39895625954601 62.598688145071534 4.9918982035286135 0 0 0
445 1 1 107.8580039594647 62.01187036753353 8.883094862742128 0 0 0
446 1 1 106.65596686099028 63.099857734456954 12.330226124168545 0 0 0
447 1 1 107.35297432360794 66.81995317960157 13.512327265271391 0 0 0
412 1 1 103.36851511238562 77.43778532574969 1.0581896922102496 0 0 0
413 1 1 105.76285549520864 79.80284326833045 -0.5508882202418611 0 0 0
414 1 1 103.27950090962725 82.67805016105909 -0.503878663307307 0 0 0
415 1 1 102.63250622329181 81.74990613531173 3.158283157105053 0 0 0
416 1 1 106.25475938211393 81.88894574583355 4.197207786327836 0 0 0
417 1 1 106.58884855943428 85.34711095175868 2.3831161474238476 0 0 0
418 1 7 103.93046751885635 87.14722078277826 4.389054850389065 0 0 0
419 1 1 104.55052724183102 85.31488991860945 7.7321978566024425 0 0 0
420 1 1 108.33806772463683 85.25890911263379 7.953122432627115 0 0 0
421 1 25 108.47798235034811 88.81416495935056 6.548179463964881 0 0 0
423 1 1 109.10293456231744 88.17309380096198 11.868092362761052 0 0 0
435 1 1 109.841099669571 80.8886453142757 13.095286844276176 0 0 0
436 1 1 107.94895258484729 79.73974275636108 10.010241648062296 0 0 0
437 1 1 110.24231830642425 77.25776829909385 8.104231024769504 0 0 0
438 1 1 110.58837088472511 75.94589270840268 4.519274405988724 0 0 0
439 1 1 110.63133477195662 72.01184795032319 4.772162487257516 0 0 0
321 1 1 117.24637970993335 87.6718896926777 1.968447451478195 0 0 0
316 1 3 108.54180267249112 92.67456144929916 1.225958913653028 0 0 0
317 1 1 111.69515846853693 90.99233610954235 2.478119414693727 0 0 0
318 1 1 114.99328863172877 92.97639985556164 2.283148205731302 0 0 0
422 1 22 106.52464917666128 89.94639235764326 9.70824315936871 0 0 0
424 1 1 112.0663410257464 89.89514831717298 9.989031398466896 0 0 0
425 1 5 110.32198477801984 93.36741077615957 10.297056981975421 0 0 0
426 1 21 109.58691331702323 92.71240775476842 14.00111677639552 0 0 0
319 1 1 117.49420892665866 92.69645909556908 -0.6217207685239678 0 0 0
320 1 1 119.8502923559189 90.3652003553011 1.3224037774824007 0 0 0
431 1 1 109.55291768649931 88.01904633023261 18.48837770452705 0 0 0
432 1 12 110.15497159959703 84.53274989043571 19.89434229807341 0 0 0
433 1 1 113.0442177259564 82.45073784435844 18.552247867267777 0 0 0
434 1 1 110.60002397966846 80.04167086479053 16.782231635032936 0 0 0
427 1 14 112.27011000724124 93.75036057233322 16.681104168434906 0 0 0
428 1 1 114.28230927923487 90.7071256560974 18.20320766840422 0 0 0
429 1 1 113.2421688714445 91.24510899547734 22.030336616816616 0 0 0
430 1 9 109.52785562911318 91.11612001135214 20.831270826560477 0 0 0

Velocities

124 0 0 0
128 0 0 0
127 0 0 0
129 0 0 0
130 0 0 0
131 0 0 0
132 0 0 0
133 0 0 0
134 0 0 0
298 0 0 0
146 0 0 0
3 0 0 0
4 0 0 0
7 0 0 0
8 0 0 0
9 0 0 0
10 0 0 0
189 0 0 0
190 0 0 0
191 0 0 0
192 0 0 0
193 0 0 0
194 0 0 0
195 0 0 0
1 0 0 0
2 0 0 0
184 0 0 0
188 0 0 0
145 0 0 0
110 0 0 0
111 0 0 0
112 0 0 0
113 0 0 0
114 0 0 0
115 0 0 0
116 0 0 0
117 0 0 0
118 0 0 0
119 0 0 0
120 0 0 0
121 0 0 0
122 0 0 0
125 0 0 0
126 0 0 0
136 0 0 0
137 0 0 0
138 0 0 0
139 0 0 0
140 0 0 0
141 0 0 0
142 0 0 0
143 0 0 0
144 0 0 0
5 0 0 0
6 0 0 0
11 0 0 0
12 0 0 0
13 0 0 0
14 0 0 0
15 0 0 0
16 0 0 0
17 0 0 0
18 0 0 0
19 0 0 0
20 0 0 0
21 0 0 0
22 0 0 0
23 0 0 0
24 0 0 0
95 0 0 0
96 0 0 0
99 0 0 0
103 0 0 0
123 0 0 0
92 0 0 0
135 0 0 0
259 0 0 0
293 0 0 0
294 0 0 0
295 0 0 0
296 0 0 0
297 0 0 0
291 0 0 0
292 0 0 0
148 0 0 0
46 0 0 0
48 0 0 0
49 0 0 0
47 0 0 0
50 0 0 0
51 0 0 0
52 0 0 0
53 0 0 0
54 0 0 0
187 0 0 0
196 0 0 0
197 0 0 0
198 0 0 0
199 0 0 0
200 0 0 0
201 0 0 0
202 0 0 0
203 0 0 0
204 0 0 0
205 0 0 0
206 0 0 0
207 0 0 0
252 0 0 0
253 0 0 0
256 0 0 0
257 0 0 0
258 0 0 0
260 0 0 0
261 0 0 0
174 0 0 0
175 0 0 0
176 0 0 0
177 0 0 0
178 0 0 0
179 0 0 0
180 0 0 0
181 0 0 0
182 0 0 0
183 0 0 0
185 0 0 0
186 0 0 0
208 0 0 0
246 0 0 0
247 0 0 0
249 0 0 0
250 0 0 0
251 0 0 0
254 0 0 0
255 0 0 0
147 0 0 0
149 0 0 0
33 0 0 0
34 0 0 0
35 0 0 0
36 0 0 0
37 0 0 0
38 0 0 0
39 0 0 0
41 0 0 0
105 0 0 0
106 0 0 0
107 0 0 0
108 0 0 0
109 0 0 0
25 0 0 0
26 0 0 0
27 0 0 0
28 0 0 0
29 0 0 0
30 0 0 0
31 0 0 0
32 0 0 0
42 0 0 0
55 0 0 0
56 0 0 0
57 0 0 0
58 0 0 0
59 0 0 0
60 0 0 0
61 0 0 0
62 0 0 0
63 0 0 0
90 0 0 0
91 0 0 0
94 0 0 0
97 0 0 0
98 0 0 0
100 0 0 0
101 0 0 0
102 0 0 0
104 0 0 0
209 0 0 0
64 0 0 0
65 0 0 0
66 0 0 0
67 0 0 0
68 0 0 0
69 0 0 0
70 0 0 0
71 0 0 0
72 0 0 0
88 0 0 0
89 0 0 0
93 0 0 0
210 0 0 0
211 0 0 0
212 0 0 0
213 0 0 0
214 0 0 0
215 0 0 0
216 0 0 0
217 0 0 0
218 0 0 0
219 0 0 0
220 0 0 0
221 0 0 0
222 0 0 0
223 0 0 0
224 0 0 0
233 0 0 0
234 0 0 0
235 0 0 0
236 0 0 0
237 0 0 0
238 0 0 0
239 0 0 0
242 0 0 0
243 0 0 0
225 0 0 0
226 0 0 0
227 0 0 0
228 0 0 0
229 0 0 0
230 0 0 0
231 0 0 0
232 0 0 0
73 0 0 0
75 0 0 0
76 0 0 0
77 0 0 0
78 0 0 0
79 0 0 0
80 0 0 0
81 0 0 0
82 0 0 0
83 0 0 0
84 0 0 0
85 0 0 0
86 0 0 0
87 0 0 0
263 0 0 0
284 0 0 0
285 0 0 0
287 0 0 0
288 0 0 0
289 0 0 0
290 0 0 0
44 0 0 0
45 0 0 0
154 0 0 0
155 0 0 0
156 0 0 0
157 0 0 0
158 0 0 0
159 0 0 0
160 0 0 0
161 0 0 0
162 0 0 0
163 0 0 0
164 0 0 0
262 0 0 0
264 0 0 0
265 0 0 0
266 0 0 0
269 0 0 0
165 0 0 0
166 0 0 0
167 0 0 0
168 0 0 0
169 0 0 0
170 0 0 0
171 0 0 0
172 0 0 0
173 0 0 0
244 0 0 0
245 0 0 0
248 0 0 0
267 0 0 0
268 0 0 0
270 0 0 0
271 0 0 0
272 0 0 0
274 0 0 0
275 0 0 0
286 0 0 0
40 0 0 0
43 0 0 0
150 0 0 0
151 0 0 0
152 0 0 0
153 0 0 0
240 0 0 0
241 0 0 0
74 0 0 0
283 0 0 0
273 0 0 0
276 0 0 0
277 0 0 0
278 0 0 0
279 0 0 0
280 0 0 0
281 0 0 0
282 0 0 0
572 0 0 0
579 0 0 0
580 0 0 0
581 0 0 0
582 0 0 0
583 0 0 0
584 0 0 0
573 0 0 0
574 0 0 0
575 0 0 0
576 0 0 0
577 0 0 0
578 0 0 0
560 0 0 0
564 0 0 0
589 0 0 0
590 0 0 0
591 0 0 0
592 0 0 0
593 0 0 0
594 0 0 0
595 0 0 0
596 0 0 0
470 0 0 0
471 0 0 0
472 0 0 0
477 0 0 0
545 0 0 0
546 0 0 0
549 0 0 0
553 0 0 0
556 0 0 0
557 0 0 0
558 0 0 0
561 0 0 0
562 0 0 0
563 0 0 0
565 0 0 0
566 0 0 0
567 0 0 0
568 0 0 0
569 0 0 0
571 0 0 0
585 0 0 0
586 0 0 0
587 0 0 0
588 0 0 0
461 0 0 0
462 0 0 0
463 0 0 0
464 0 0 0
465 0 0 0
466 0 0 0
467 0 0 0
468 0 0 0
469 0 0 0
542 0 0 0
570 0 0 0
473 0 0 0
476 0 0 0
480 0 0 0
538 0 0 0
342 0 0 0
343 0 0 0
344 0 0 0
345 0 0 0
454 0 0 0
457 0 0 0
341 0 0 0
484 0 0 0
487 0 0 0
493 0 0 0
494 0 0 0
351 0 0 0
354 0 0 0
355 0 0 0
453 0 0 0
455 0 0 0
456 0 0 0
458 0 0 0
481 0 0 0
485 0 0 0
488 0 0 0
492 0 0 0
495 0 0 0
496 0 0 0
497 0 0 0
498 0 0 0
499 0 0 0
500 0 0 0
501 0 0 0
502 0 0 0
503 0 0 0
504 0 0 0
505 0 0 0
506 0 0 0
507 0 0 0
508 0 0 0
547 0 0 0
548 0 0 0
550 0 0 0
551 0 0 0
552 0 0 0
554 0 0 0
555 0 0 0
559 0 0 0
358 0 0 0
359 0 0 0
361 0 0 0
362 0 0 0
363 0 0 0
364 0 0 0
365 0 0 0
448 0 0 0
449 0 0 0
450 0 0 0
451 0 0 0
452 0 0 0
459 0 0 0
460 0 0 0
539 0 0 0
540 0 0 0
541 0 0 0
543 0 0 0
544 0 0 0
486 0 0 0
491 0 0 0
299 0 0 0
300 0 0 0
474 0 0 0
475 0 0 0
478 0 0 0
479 0 0 0
482 0 0 0
483 0 0 0
489 0 0 0
490 0 0 0
509 0 0 0
510 0 0 0
366 0 0 0
367 0 0 0
368 0 0 0
369 0 0 0
370 0 0 0
511 0 0 0
512 0 0 0
513 0 0 0
514 0 0 0
515 0 0 0
516 0 0 0
517 0 0 0
518 0 0 0
519 0 0 0
520 0 0 0
521 0 0 0
522 0 0 0
523 0 0 0
524 0 0 0
528 0 0 0
529 0 0 0
530 0 0 0
531 0 0 0
532 0 0 0
533 0 0 0
534 0 0 0
535 0 0 0
536 0 0 0
537 0 0 0
371 0 0 0
372 0 0 0
373 0 0 0
374 0 0 0
375 0 0 0
376 0 0 0
377 0 0 0
525 0 0 0
526 0 0 0
527 0 0 0
339 0 0 0
346 0 0 0
334 0 0 0
335 0 0 0
336 0 0 0
337 0 0 0
338 0 0 0
304 0 0 0
305 0 0 0
306 0 0 0
307 0 0 0
308 0 0 0
309 0 0 0
314 0 0 0
347 0 0 0
348 0 0 0
349 0 0 0
350 0 0 0
352 0 0 0
353 0 0 0
397 0 0 0
398 0 0 0
400 0 0 0
401 0 0 0
402 0 0 0
403 0 0 0
404 0 0 0
405 0 0 0
406 0 0 0
407 0 0 0
408 0 0 0
409 0 0 0
410 0 0 0
411 0 0 0
322 0 0 0
323 0 0 0
324 0 0 0
325 0 0 0
326 0 0 0
327 0 0 0
328 0 0 0
329 0 0 0
330 0 0 0
331 0 0 0
332 0 0 0
333 0 0 0
340 0 0 0
356 0 0 0
357 0 0 0
360 0 0 0
395 0 0 0
396 0 0 0
399 0 0 0
301 0 0 0
302 0 0 0
303 0 0 0
310 0 0 0
311 0 0 0
312 0 0 0
313 0 0 0
315 0 0 0
382 0 0 0
383 0 0 0
384 0 0 0
385 0 0 0
386 0 0 0
387 0 0 0
388 0 0 0
389 0 0 0
390 0 0 0
391 0 0 0
392 0 0 0
393 0 0 0
394 0 0 0
378 0 0 0
379 0 0 0
380 0 0 0
381 0 0 0
440 0 0 0
441 0 0 0
442 0 0 0
443 0 0 0
444 0 0 0
445 0 0 0
446 0 0 0
447 0 0 0
412 0 0 0
413 0 0 0
414 0 0 0
415 0 0 0
416 0 0 0
417 0 0 0
418 0 0 0
419 0 0 0
420 0 0 0
421 0 0 0
423 0 0 0
435 0 0 0
436 0 0 0
437 0 0 0
438 0 0 0
439 0 0 0
321 0 0 0
316 0 0 0
317 0 0 0
318 0 0 0
422 0 0 0
424 0 0 0
425 0 0 0
426 0 0 0
319 0 0 0
320 0 0 0
431 0 0 0
432 0 0 0
433 0 0 0
434 0 0 0
427 0 0 0
428 0 0 0
429 0 0 0
430 0 0 0

Bonds

1 1 124 127
2 2 124 128
3 4 124 126
4 27 124 125
5 17 128 132
6 19 128 133
7 35 128 129
8 36 128 130
9 33 127 128
10 34 127 129
11 18 129 132
12 20 129 133
13 37 129 130
14 43 129 131
15 24 130 132
16 25 130 133
17 42 130 131
18 21 131 132
19 22 131 133
20 8 132 134
21 14 132 133
22 9 133 134
23 28 133 135
24 10 134 135
25 11 134 136
26 12 134 137
27 332 146 148
28 333 146 147
29 166 3 191
30 167 3 192
31 203 3 4
32 206 3 205
33 207 3 209
34 239 3 5
35 168 4 192
36 197 4 7
37 240 4 5
38 241 4 6
39 80 7 12
40 153 7 194
41 188 7 9
42 190 7 10
43 196 7 8
44 59 7 11
45 140 8 195
46 152 8 193
47 154 8 194
48 189 8 9
49 191 8 10
50 200 8 196
51 187 9 10
52 192 9 11
53 81 10 12
54 193 10 11
55 145 189 190
56 148 189 193
57 163 189 191
58 164 189 192
59 142 190 193
60 146 190 191
61 147 190 192
62 155 190 197
63 156 190 201
64 149 191 193
65 165 191 192
66 171 191 205
67 172 191 201
68 150 192 193
69 151 192 194
70 137 193 195
71 143 193 194
72 157 193 196
73 138 194 195
74 158 194 196
75 139 195 196
76 141 195 197
77 204 1 2
78 205 1 3
79 208 1 184
80 201 2 3
81 202 2 4
82 170 184 188
83 289 184 186
84 291 184 187
85 295 184 185
86 144 188 190
87 160 188 189
88 161 188 191
89 162 188 192
90 213 145 147
91 217 145 146
92 186 110 112
93 231 110 111
94 232 110 114
95 235 110 115
96 243 110 142
97 179 111 112
98 182 111 113
99 222 111 114
100 223 111 115
101 58 112 116
102 178 112 113
103 180 112 114
104 181 112 115
105 51 113 117
106 59 113 116
107 183 113 114
108 184 113 115
109 48 114 117
110 56 114 116
111 105 114 118
112 218 114 141
113 224 114 115
114 225 114 140
115 49 115 117
116 57 115 116
117 106 115 118
118 118 115 119
119 226 115 140
120 44 116 117
121 52 116 120
122 53 116 119
123 101 116 118
124 45 117 120
125 46 117 118
126 47 117 121
127 50 117 119
128 82 118 121
129 83 118 122
130 84 118 138
131 88 118 119
132 95 118 139
133 96 118 140
134 102 118 120
135 54 119 120
136 89 119 121
137 91 119 122
138 109 119 123
139 7 120 124
140 55 120 123
141 103 120 121
142 104 120 122
143 5 121 124
144 29 121 125
145 85 121 122
146 86 121 138
147 90 121 123
148 6 122 124
149 30 122 125
150 87 122 138
151 92 122 123
152 93 122 137
153 97 122 139
154 100 122 126
155 13 125 133
156 15 125 127
157 16 125 128
158 23 125 137
159 26 125 126
160 31 125 138
161 38 126 127
162 39 126 128
163 40 126 129
164 128 136 137
165 129 136 138
166 94 137 138
167 130 137 139
168 98 138 139
169 99 138 140
170 220 139 141
171 244 139 140
172 221 140 141
173 242 140 142
174 212 141 143
175 219 141 142
176 214 142 143
177 215 142 144
178 209 143 144
179 210 143 145
180 211 144 145
181 216 144 146
182 71 5 7
183 237 5 6
184 75 6 12
185 76 6 13
186 194 6 9
187 195 6 10
188 198 6 7
189 199 6 8
190 236 6 11
191 238 6 100
192 77 11 12
193 78 11 13
194 79 11 15
195 125 11 16
196 60 12 13
197 61 12 14
198 62 12 15
199 66 12 16
200 63 13 14
201 64 13 15
202 67 13 16
203 68 13 17
204 65 14 15
205 69 14 16
206 70 14 17
207 71 14 18
208 72 15 16
209 73 15 17
210 74 15 18
211 116 15 119
212 110 16 19
213 119 16 17
214 120 16 18
215 124 16 99
216 111 17 19
217 121 17 18
218 122 17 20
219 112 18 19
220 113 18 123
221 123 18 20
222 107 19 119
223 108 19 123
224 115 19 20
225 117 19 21
226 131 20 21
227 132 20 22
228 133 20 23
229 259 21 23
230 261 21 24
231 269 21 22
232 260 22 23
233 262 22 24
234 258 23 24
235 263 23 25
236 264 24 25
237 265 24 26
238 266 24 99
239 267 24 102
240 268 24 98
241 37 95 96
242 248 95 99
243 456 95 97
244 457 95 98
245 245 96 99
246 246 96 97
247 247 96 98
248 254 96 100
249 253 99 102
250 255 99 100
251 256 99 101
252 257 99 103
253 394 103 106
254 397 103 107
255 405 103 104
256 406 103 105
257 3 123 124
258 32 123 125
259 41 123 127
260 114 123 126
261 274 92 93
262 275 92 94
263 276 92 95
264 126 135 136
265 127 135 137
266 565 259 292
267 566 259 293
268 589 259 263
269 590 259 264
270 599 259 260
271 600 259 261
272 280 293 295
273 282 293 296
274 563 293 294
275 281 294 295
276 283 294 296
277 134 295 298
278 277 295 296
279 278 295 297
280 135 296 298
281 279 296 297
282 136 297 298
283 568 291 292
284 569 291 293
285 561 292 293
286 562 292 294
287 335 148 149
288 645 46 47
289 647 46 48
290 932 46 157
291 338 48 50
292 634 48 49
293 635 48 52
294 339 49 50
295 342 49 51
296 636 49 52
297 637 49 53
298 630 47 48
299 631 47 49
300 632 47 52
301 633 47 53
302 646 47 157
303 652 47 199
304 298 50 196
305 336 50 51
306 340 50 52
307 341 50 53
308 345 50 54
309 348 50 199
310 337 51 104
311 343 51 52
312 344 51 53
313 346 51 54
314 347 51 55
315 404 51 108
316 638 52 53
317 639 52 54
318 641 52 55
319 648 52 56
320 640 53 54
321 642 53 55
322 649 53 56
323 650 53 57
324 653 53 199
325 352 54 202
326 375 54 206
327 654 54 203
328 656 54 56
329 657 54 57
330 658 54 58
331 699 54 55
332 159 187 190
333 174 187 188
334 175 187 189
335 176 187 191
336 296 196 197
337 297 196 198
338 299 197 198
339 300 197 201
340 303 197 199
341 301 198 201
342 302 198 202
343 304 198 199
344 305 198 200
345 306 199 201
346 354 199 202
347 601 199 200
348 603 199 203
349 307 200 201
350 355 200 202
351 382 200 204
352 602 200 253
353 604 200 203
354 605 200 256
355 606 200 257
356 264 201 202
357 308 201 204
358 309 201 205
359 310 201 253
360 311 201 203
361 349 202 204
362 350 202 205
363 351 202 206
364 353 202 203
365 373 203 204
366 374 203 205
367 376 203 206
368 655 203 207
369 660 203 253
370 356 204 205
371 357 204 206
372 358 204 208
373 367 204 207
374 368 204 250
375 377 204 253
376 378 204 254
377 359 205 206
378 360 205 208
379 362 205 209
380 369 205 207
381 361 206 208
382 363 206 209
383 364 206 210
384 370 206 207
385 371 207 208
386 434 207 209
387 435 207 210
388 661 207 250
389 665 207 211
390 592 252 255
391 593 252 256
392 613 252 253
393 614 252 254
394 580 253 255
395 582 253 256
396 584 253 257
397 607 253 254
398 574 256 257
399 575 256 258
400 576 256 259
401 588 256 264
402 595 256 260
403 596 256 261
404 577 257 258
405 578 257 259
406 597 257 260
407 564 258 292
408 579 258 259
409 598 258 260
410 882 260 261
411 883 260 262
412 885 260 263
413 886 260 264
414 884 261 262
415 887 261 263
416 888 261 264
417 891 261 265
418 622 174 179
419 629 174 178
420 682 174 176
421 685 174 175
422 973 174 247
423 620 175 179
424 627 175 178
425 672 175 176
426 683 175 177
427 684 175 247
428 329 176 180
429 618 176 179
430 671 176 246
431 673 176 177
432 647 176 247
433 680 176 178
434 330 177 180
435 331 177 181
436 621 177 179
437 628 177 178
438 326 178 180
439 327 178 181
440 328 178 182
441 617 178 179
442 322 179 180
443 323 179 181
444 324 179 182
445 325 179 183
446 609 179 254
447 616 179 251
448 668 179 250
449 312 180 181
450 313 180 182
451 314 180 183
452 315 180 184
453 292 181 185
454 316 181 182
455 317 181 183
456 318 181 184
457 287 182 186
458 293 182 185
459 319 182 183
460 320 182 184
461 169 183 188
462 288 183 186
463 290 183 187
464 294 183 185
465 321 183 184
466 177 185 188
467 285 185 186
468 286 185 187
469 173 186 188
470 284 186 187
471 365 208 209
472 366 208 210
473 372 208 212
474 379 208 211
475 662 246 250
476 676 246 247
477 677 246 248
478 681 246 249
479 623 247 251
480 666 247 250
481 958 247 249
482 964 247 248
483 615 249 253
484 626 249 251
485 664 249 250
486 912 249 252
487 611 250 253
488 612 250 254
489 669 250 251
490 670 250 252
491 591 251 255
492 608 251 253
493 610 251 254
494 625 251 252
495 581 254 255
496 583 254 256
497 585 254 257
498 586 254 258
499 570 255 256
500 571 255 257
501 572 255 258
502 573 255 259
503 587 255 264
504 594 255 260
505 334 147 148
506 383 147 149
507 753 33 36
508 755 33 37
509 767 33 34
510 776 33 35
511 691 34 38
512 754 34 36
513 756 34 37
514 407 34 35
515 781 34 39
516 694 35 38
517 758 35 36
518 759 35 37
519 984 35 39
520 687 36 38
521 676 36 37
522 760 36 39
523 688 37 38
524 761 37 39
525 689 38 39
526 690 38 40
527 692 38 41
528 693 38 42
529 977 39 40
530 978 39 41
531 979 39 42
532 980 39 43
533 985 39 150
534 651 41 52
535 937 41 44
536 853 41 42
537 987 41 43
538 396 105 106
539 399 105 107
540 401 105 108
541 402 105 109
542 227 106 111
543 233 106 115
544 384 106 107
545 385 106 108
546 386 106 109
547 387 106 110
548 185 107 112
549 228 107 111
550 234 107 115
551 388 107 108
552 389 107 109
553 390 107 110
554 229 108 111
555 391 108 109
556 392 108 110
557 230 109 111
558 393 109 110
559 453 25 102
560 507 25 26
561 508 25 29
562 509 25 27
563 510 25 98
564 511 25 30
565 464 26 98
566 512 26 27
567 513 26 28
568 514 26 29
569 515 26 30
570 467 27 98
571 536 27 90
572 777 27 30
573 779 27 31
574 832 27 29
575 836 27 28
576 778 28 30
577 780 28 31
578 833 28 29
579 834 28 32
580 768 29 30
581 770 29 31
582 772 29 33
583 831 29 32
584 424 30 101
585 454 30 102
586 762 30 31
587 763 30 33
588 764 30 34
589 769 30 32
590 765 31 33
591 766 31 34
592 771 31 32
593 775 31 35
594 757 32 36
595 773 32 33
596 774 32 34
597 835 32 35
598 722 42 56
599 938 42 44
600 988 42 43
601 989 42 152
602 991 42 150
603 416 55 104
604 423 55 101
605 695 55 56
606 696 55 57
607 697 55 58
608 698 55 59
609 700 56 57
610 701 56 58
611 702 56 59
612 703 56 60
613 715 56 152
614 380 57 206
615 659 57 203
616 704 57 58
617 705 57 59
618 706 57 60
619 710 57 61
620 381 58 206
621 422 58 101
622 707 58 59
623 708 58 60
624 711 58 61
625 717 58 62
626 709 59 60
627 712 59 61
628 718 59 62
629 719 59 63
630 713 60 61
631 714 60 64
632 716 60 152
633 720 60 62
634 721 60 63
635 723 60 154
636 430 61 210
637 663 61 207
638 724 61 64
639 725 61 62
640 726 61 63
641 727 61 65
642 728 62 64
643 782 62 63
644 783 62 65
645 784 62 66
646 729 63 64
647 785 63 65
648 786 63 66
649 790 63 67
650 272 90 92
651 465 90 95
652 471 90 93
653 474 90 94
654 525 90 91
655 273 91 92
656 466 91 95
657 472 91 93
658 475 91 94
659 252 94 96
660 460 94 95
661 462 94 97
662 463 94 98
663 249 97 99
664 418 97 100
665 420 97 101
666 458 97 98
667 250 98 99
668 419 98 100
669 421 98 101
670 452 98 102
671 408 100 103
672 410 100 104
673 417 100 101
674 455 100 102
675 409 101 103
676 411 101 104
677 412 101 105
678 119 101 102
679 403 102 106
680 413 102 103
681 414 102 104
682 415 102 105
683 395 104 106
684 398 104 107
685 400 104 108
686 407 104 105
687 425 209 210
688 426 209 212
689 427 209 213
690 431 209 211
691 730 64 65
692 731 64 66
693 732 64 68
694 733 64 242
695 734 64 67
696 787 65 66
697 788 65 68
698 791 65 67
699 793 65 69
700 795 65 214
701 789 66 68
702 792 66 67
703 794 66 69
704 796 66 70
705 801 67 68
706 856 67 69
707 1010 67 70
708 1011 67 71
709 797 68 69
710 798 68 72
711 799 68 70
712 800 68 71
713 535 69 89
714 539 69 85
715 837 69 86
716 840 69 72
717 841 69 73
718 846 69 70
719 847 69 71
720 848 70 72
721 851 70 73
722 1013 70 71
723 1014 70 74
724 849 71 72
725 852 71 73
726 522 71 74
727 1015 71 75
728 842 72 73
729 843 72 76
730 850 72 74
731 854 72 75
732 270 88 92
733 469 88 93
734 520 88 89
735 521 88 90
736 522 88 91
737 271 89 92
738 470 89 93
739 473 89 94
740 523 89 90
741 524 89 91
742 251 93 96
743 459 93 95
744 461 93 97
745 468 93 94
746 476 93 213
747 428 210 212
748 429 210 213
749 432 210 211
750 433 210 214
751 444 211 212
752 446 211 213
753 448 211 215
754 735 211 214
755 436 212 213
756 437 212 215
757 439 212 216
758 445 212 214
759 438 213 215
760 440 213 216
761 441 213 217
762 447 213 214
763 449 214 215
764 485 214 216
765 486 214 217
766 736 214 218
767 442 215 216
768 443 215 217
769 450 215 219
770 451 215 218
771 477 216 217
772 478 216 219
773 479 216 220
774 483 216 218
775 480 217 219
776 481 217 220
777 482 217 221
778 484 217 218
779 502 218 219
780 503 218 220
781 504 218 222
782 552 218 221
783 802 218 234
784 803 218 235
785 487 219 220
786 488 219 222
787 489 219 223
788 493 219 221
789 490 220 222
790 491 220 223
791 494 220 221
792 495 220 224
793 496 221 222
794 499 221 223
795 545 221 224
796 546 221 225
797 492 222 223
798 497 222 224
799 498 222 225
800 505 222 234
801 506 222 231
802 500 223 224
803 501 223 225
804 547 224 225
805 548 224 226
806 809 233 234
807 811 233 235
808 1005 233 236
809 1012 233 237
810 738 234 238
811 804 234 235
812 810 234 237
813 814 234 236
814 739 235 238
815 740 235 239
816 812 235 237
817 815 235 236
818 741 236 238
819 743 236 239
820 1004 236 240
821 1006 236 237
822 745 237 238
823 746 237 239
824 1002 237 241
825 1003 237 242
826 1007 237 240
827 737 238 239
828 742 238 240
829 719 238 241
830 747 238 242
831 748 238 243
832 744 239 240
833 749 239 241
834 750 239 242
835 751 239 243
836 752 239 244
837 678 242 246
838 967 242 244
839 969 242 245
840 998 242 243
841 679 243 246
842 968 243 244
843 970 243 245
844 971 243 247
845 549 225 226
846 550 225 227
847 551 225 230
848 553 225 231
849 554 226 227
850 555 226 228
851 821 227 228
852 823 227 229
853 825 227 231
854 861 227 230
855 816 228 229
856 817 228 231
857 818 228 232
858 822 228 230
859 819 229 231
860 820 229 232
861 824 229 230
862 828 229 233
863 813 230 234
864 826 230 231
865 827 230 232
866 862 230 233
867 805 231 234
868 807 231 235
869 258 231 232
870 829 231 233
871 806 232 234
872 808 232 235
873 150 232 233
874 830 232 236
875 540 73 85
876 844 73 76
877 845 73 82
878 853 73 74
879 855 73 75
880 858 75 76
881 1017 75 77
882 857 76 78
883 859 76 77
884 877 76 82
885 876 77 79
886 878 77 78
887 872 78 79
888 873 78 80
889 874 78 81
890 875 78 82
891 413 79 80
892 863 79 81
893 864 79 82
894 865 79 83
895 556 80 84
896 866 80 81
897 867 80 82
898 868 80 83
899 541 81 85
900 557 81 84
901 869 81 82
902 870 81 83
903 542 82 85
904 558 82 84
905 838 82 86
906 871 82 83
907 537 83 87
908 543 83 85
909 559 83 84
910 839 83 86
911 533 84 87
912 534 84 88
913 538 84 85
914 560 84 86
915 526 85 87
916 527 85 88
917 528 85 89
918 544 85 86
919 529 86 87
920 530 86 88
921 531 86 89
922 532 86 90
923 516 87 88
924 517 87 89
925 518 87 90
926 519 87 91
927 894 263 264
928 895 263 265
929 896 263 266
930 897 263 267
931 1047 284 285
932 1048 284 286
933 1038 285 287
934 1045 285 286
935 902 287 289
936 477 287 288
937 881 288 290
938 903 288 289
939 14 289 290
940 880 289 291
941 567 290 292
942 879 290 291
943 643 44 47
944 927 44 45
945 928 44 46
946 929 44 157
947 933 44 156
948 644 45 47
949 930 45 46
950 931 45 157
951 934 45 156
952 941 45 158
953 942 45 159
954 945 154 155
955 946 154 156
956 906 155 158
957 908 155 159
958 935 155 157
959 947 155 156
960 952 155 161
961 954 155 162
962 955 155 160
963 907 156 158
964 909 156 159
965 936 156 157
966 953 156 161
967 956 156 160
968 943 157 158
969 944 157 159
970 905 158 159
971 910 158 160
972 911 159 160
973 1049 160 161
974 1050 160 162
975 1053 161 162
976 481 161 163
977 1054 161 164
978 1055 161 165
979 1056 162 163
980 1057 162 164
981 1058 162 165
982 1062 162 166
983 1059 163 164
984 1060 163 165
985 1063 163 166
986 1064 163 167
987 1061 164 165
988 1065 164 166
989 1066 164 167
990 1068 164 168
991 889 262 263
992 890 262 264
993 892 262 265
994 893 262 266
995 898 264 265
996 899 264 266
997 900 264 267
998 901 264 268
999 63 265 266
1000 1018 265 267
1001 1019 265 268
1002 1020 265 269
1003 1021 266 267
1004 1022 266 268
1005 1023 266 269
1006 1030 266 270
1007 1029 269 271
1008 1033 269 270
1009 1034 269 273
1010 1036 269 272
1011 974 165 248
1012 824 165 166
1013 1067 165 167
1014 1069 165 168
1015 1051 166 168
1016 1070 166 167
1017 1052 167 168
1018 1071 167 169
1019 926 168 172
1020 976 168 170
1021 577 168 169
1022 924 169 171
1023 925 169 172
1024 975 169 170
1025 919 170 173
1026 922 170 171
1027 923 170 172
1028 965 170 244
1029 914 171 173
1030 487 171 172
1031 920 171 174
1032 915 172 173
1033 921 172 174
1034 619 173 251
1035 686 173 175
1036 916 173 174
1037 917 173 247
1038 918 173 248
1039 674 244 246
1040 599 244 245
1041 960 244 247
1042 961 244 248
1043 675 245 246
1044 957 245 249
1045 962 245 247
1046 963 245 248
1047 624 248 251
1048 667 248 250
1049 913 248 252
1050 959 248 249
1051 904 267 289
1052 1024 267 268
1053 1025 267 269
1054 1027 267 271
1055 1031 267 270
1056 1026 268 269
1057 1028 268 271
1058 1032 268 270
1059 1035 268 272
1060 767 270 271
1061 1072 270 273
1062 1073 270 274
1063 1074 270 272
1064 612 271 287
1065 1037 271 286
1066 1041 271 273
1067 1042 271 274
1068 1043 271 272
1069 1044 271 275
1070 1076 272 273
1071 1079 272 274
1072 1089 272 275
1073 1090 272 276
1074 1080 274 275
1075 1081 274 276
1076 1082 274 282
1077 1084 274 277
1078 1091 275 276
1079 861 275 277
1080 1093 275 278
1081 1039 286 287
1082 1040 286 288
1083 981 40 41
1084 982 40 42
1085 983 40 43
1086 986 40 44
1087 939 43 44
1088 940 43 45
1089 990 43 152
1090 992 43 150
1091 1008 150 151
1092 1009 150 152
1093 994 151 152
1094 995 151 153
1095 948 152 154
1096 993 152 153
1097 949 153 154
1098 950 153 155
1099 951 153 156
1100 972 240 244
1101 999 240 241
1102 1000 240 242
1103 1001 240 243
1104 966 241 244
1105 996 241 242
1106 997 241 243
1107 860 74 76
1108 1016 74 75
1109 1046 283 285
1110 1085 283 284
1111 1075 273 274
1112 1077 273 275
1113 1078 273 276
1114 1083 273 277
1115 1092 276 277
1116 1094 276 278
1117 1103 277 278
1118 1104 277 279
1119 1105 277 281
1120 1106 277 282
1121 1098 278 280
1122 1100 278 281
1123 1101 278 282
1124 1107 278 279
1125 1099 279 280
1126 575 279 281
1127 1102 279 282
1128 1095 280 281
1129 1096 280 282
1130 1086 281 283
1131 1097 281 282
1132 1087 282 283
1133 1088 282 284
1134 1119 572 580
1135 1140 572 573
1136 1143 572 574
1137 1144 572 575
1138 1108 579 581
1139 1114 579 580
1140 1109 580 581
1141 1129 580 582
1142 1110 581 582
1143 1111 581 583
1144 981 582 583
1145 1127 582 584
1146 1128 583 584
1147 1130 583 585
1148 1133 584 585
1149 1159 584 586
1150 1126 573 576
1151 1145 573 574
1152 1146 573 575
1153 1123 574 576
1154 1156 574 575
1155 1120 575 579
1156 1121 575 580
1157 1124 575 576
1158 1125 575 577
1159 1115 576 578
1160 1117 576 579
1161 1118 576 580
1162 1122 576 577
1163 1116 577 578
1164 633 577 579
1165 712 577 580
1166 1112 578 579
1167 1113 578 580
1168 1172 560 564
1169 1250 560 561
1170 1251 560 562
1171 1252 560 563
1172 1164 564 565
1173 573 564 566
1174 1165 564 567
1175 1166 564 568
1176 1132 589 596
1177 1204 589 593
1178 1210 589 590
1179 1216 589 591
1180 1205 590 593
1181 1215 590 592
1182 1217 590 591
1183 1207 591 593
1184 1235 591 592
1185 1163 592 594
1186 1206 592 593
1187 887 593 595
1188 1162 593 594
1189 615 594 596
1190 1158 594 595
1191 1131 595 596
1192 878 470 471
1193 1222 470 472
1194 1231 471 472
1195 1232 471 473
1196 1233 471 545
1197 1234 471 546
1198 1322 472 477
1199 1335 472 473
1200 1336 472 474
1201 1337 472 545
1202 1371 472 476
1203 1293 477 549
1204 1321 477 480
1205 1326 477 479
1206 1329 477 481
1207 1332 477 548
1208 878 477 478
1209 1303 545 549
1210 1309 545 546
1211 1344 545 548
1212 1347 545 547
1213 1291 546 549
1214 1292 546 550
1215 1310 546 547
1216 1314 546 548
1217 1286 549 550
1218 1287 549 553
1219 1294 549 551
1220 1295 549 552
1221 1243 553 558
1222 1257 553 562
1223 1276 553 556
1224 1278 553 557
1225 1290 553 554
1226 1306 553 555
1227 1213 556 590
1228 1241 556 558
1229 1275 556 557
1230 1214 557 590
1231 1236 557 591
1232 1242 557 558
1233 1283 557 559
1234 1284 557 561
1235 1285 557 562
1236 1237 558 559
1237 1238 558 560
1238 1239 558 561
1239 1240 558 562
1240 1173 561 564
1241 1176 561 565
1242 1253 561 562
1243 1254 561 563
1244 1174 562 564
1245 1177 562 565
1246 1195 562 566
1247 1255 562 563
1248 1175 563 564
1249 1178 563 565
1250 1196 563 566
1251 1197 563 567
1252 1135 565 585
1253 1167 565 566
1254 1168 565 567
1255 1169 565 568
1256 1170 565 569
1257 1171 565 587
1258 1179 566 567
1259 1180 566 568
1260 1181 566 569
1261 1182 566 570
1262 1147 567 571
1263 1183 567 568
1264 1184 567 569
1265 1185 567 570
1266 1136 568 585
1267 1148 568 571
1268 1151 568 572
1269 1186 568 569
1270 1187 568 570
1271 412 569 585
1272 1149 569 571
1273 1152 569 572
1274 1154 569 573
1275 1188 569 570
1276 1138 571 572
1277 1139 571 573
1278 1141 571 574
1279 1142 571 575
1280 1134 585 586
1281 1137 585 587
1282 1160 586 587
1283 1161 586 588
1284 1211 587 588
1285 1212 587 589
1286 1208 588 589
1287 1209 588 590
1288 1200 461 465
1289 1261 461 462
1290 1264 461 463
1291 1270 461 464
1292 1190 462 566
1293 1191 462 567
1294 1202 462 465
1295 1228 462 466
1296 1259 462 463
1297 1262 462 464
1298 1203 463 465
1299 1229 463 466
1300 487 463 464
1301 1265 463 546
1302 1201 464 465
1303 1226 464 466
1304 1227 464 468
1305 1189 465 570
1306 1198 465 466
1307 1199 465 467
1308 1192 466 566
1309 1193 466 569
1310 1194 466 570
1311 1218 466 470
1312 1223 466 467
1313 1224 466 468
1314 1219 467 470
1315 1145 467 468
1316 855 467 469
1317 1220 468 470
1318 1225 468 469
1319 920 468 471
1320 1221 469 470
1321 1230 469 471
1322 1311 542 546
1323 1340 542 545
1324 1354 542 544
1325 1355 542 543
1326 1150 570 571
1327 1153 570 572
1328 1155 570 573
1329 1157 570 574
1330 1323 473 477
1331 975 473 474
1332 1338 473 545
1333 1341 473 475
1334 1372 473 476
1335 1325 476 477
1336 1327 476 480
1337 1366 476 479
1338 1369 476 478
1339 1315 480 484
1340 1330 480 481
1341 1334 480 482
1342 1362 480 483
1343 1351 538 542
1344 699 538 539
1345 1388 538 540
1346 1389 538 541
1347 1518 342 343
1348 1169 342 344
1349 1522 342 455
1350 1394 343 457
1351 1416 343 454
1352 1519 343 344
1353 1523 343 455
1354 1545 343 345
1355 1524 344 455
1356 1528 344 346
1357 1546 344 345
1358 1399 345 456
1359 1539 345 351
1360 1540 345 455
1361 1543 345 347
1362 1547 345 346
1363 1391 454 457
1364 1397 454 456
1365 1407 454 458
1366 1408 454 459
1367 1414 454 455
1368 1392 457 458
1369 1393 457 459
1370 1520 341 342
1371 1521 341 343
1372 1529 341 450
1373 1317 484 485
1374 1318 484 486
1375 1607 487 488
1376 1608 487 489
1377 1609 487 491
1378 1610 487 493
1379 1617 487 490
1380 999 493 494
1381 1575 493 495
1382 1535 494 496
1383 1567 494 495
1384 1568 494 499
1385 1570 494 500
1386 1548 351 354
1387 1550 351 355
1388 1555 351 352
1389 1556 351 353
1390 1589 351 501
1391 1549 354 450
1392 373 354 355
1393 1554 354 358
1394 212 354 356
1395 1562 354 357
1396 1591 355 358
1397 1592 355 504
1398 1595 355 356
1399 1596 355 359
1400 1597 355 357
1401 1271 453 460
1402 1390 453 457
1403 1396 453 456
1404 1404 453 454
1405 1405 453 458
1406 1406 453 459
1407 1413 453 455
1408 1395 455 457
1409 1400 455 456
1410 1398 456 458
1411 1401 456 457
1412 1266 458 462
1413 1272 458 460
1414 1409 458 459
1415 1319 481 484
1416 1365 481 483
1417 1427 481 552
1418 1448 481 485
1419 1449 481 486
1420 1469 481 482
1421 1447 485 486
1422 1452 485 487
1423 1453 485 488
1424 1454 485 489
1425 1574 488 494
1426 1576 488 499
1427 1611 488 489
1428 1612 488 491
1429 1613 488 493
1430 1618 488 490
1431 1621 488 492
1432 1578 492 494
1433 1623 492 493
1434 1536 495 496
1435 1569 495 499
1436 1571 495 500
1437 1580 495 497
1438 292 496 498
1439 1534 496 497
1440 1537 496 499
1441 1538 496 500
1442 1438 497 498
1443 1541 497 500
1444 1542 497 501
1445 1581 497 499
1446 1300 498 554
1447 1419 498 555
1448 1422 498 502
1449 1423 498 551
1450 1428 498 500
1451 1429 498 501
1452 1436 498 499
1453 1437 499 502
1454 1572 499 500
1455 1573 499 501
1456 1577 499 503
1457 1430 500 502
1458 1377 500 501
1459 1583 500 503
1460 1585 500 504
1461 1431 501 502
1462 1432 501 551
1463 1584 501 503
1464 1586 501 504
1465 1587 501 505
1466 1424 502 551
1467 1433 502 548
1468 88 502 503
1469 1439 502 504
1470 1440 502 505
1471 1441 502 506
1472 33 503 504
1473 1628 503 505
1474 1629 503 506
1475 1009 503 507
1476 160 504 505
1477 1630 504 506
1478 1631 504 507
1479 1249 504 508
1480 1462 505 548
1481 1632 505 506
1482 1633 505 507
1483 1634 505 508
1484 1635 505 509
1485 1636 506 507
1486 1637 506 508
1487 437 506 509
1488 1641 506 510
1489 63 507 508
1490 1638 507 509
1491 1642 507 510
1492 1645 507 511
1493 1639 508 509
1494 1643 508 510
1495 1646 508 511
1496 1647 508 512
1497 1304 547 549
1498 1305 547 550
1499 1426 547 551
1500 1444 547 548
1501 996 548 549
1502 1308 548 550
1503 1434 548 551
1504 1435 548 552
1505 1288 550 553
1506 1289 550 554
1507 1296 550 551
1508 1297 550 552
1509 1298 551 553
1510 1301 551 554
1511 1420 551 555
1512 1425 551 552
1513 1282 552 556
1514 1299 552 553
1515 1302 552 554
1516 1421 552 555
1517 1244 554 558
1518 1256 554 559
1519 1258 554 562
1520 1277 554 556
1521 1279 554 557
1522 1307 554 555
1523 1245 555 558
1524 1280 555 556
1525 1281 555 557
1526 1246 559 560
1527 1247 559 561
1528 1248 559 562
1529 1249 559 563
1530 1564 358 449
1531 1598 358 361
1532 1599 358 359
1533 1600 358 362
1534 748 358 360
1535 1640 359 508
1536 1650 359 362
1537 1651 359 363
1538 1047 359 360
1539 1662 359 361
1540 1603 361 364
1541 1604 361 365
1542 1663 361 362
1543 1664 361 363
1544 1652 362 363
1545 1653 362 364
1546 1654 362 365
1547 1655 362 366
1548 1656 363 364
1549 1657 363 365
1550 1658 363 366
1551 1659 363 512
1552 387 363 367
1553 1666 364 365
1554 1667 364 366
1555 1669 364 368
1556 1672 364 367
1557 1668 365 366
1558 1670 365 368
1559 1673 365 367
1560 1675 365 369
1561 1565 448 449
1562 1566 448 450
1563 1417 449 451
1564 1563 449 450
1565 1415 450 452
1566 1418 450 451
1567 1410 451 452
1568 1411 451 453
1569 1412 451 454
1570 1402 452 453
1571 1403 452 454
1572 822 459 462
1573 1267 459 463
1574 1273 459 460
1575 1274 459 461
1576 1260 460 462
1577 1263 460 463
1578 1268 460 461
1579 1269 460 464
1580 1350 539 542
1581 1357 539 540
1582 1358 539 541
1583 1352 540 542
1584 1445 540 543
1585 1464 540 541
1586 1346 541 545
1587 1353 541 542
1588 1446 541 543
1589 1461 541 544
1590 1312 543 546
1591 1349 543 545
1592 1442 543 547
1593 1463 543 544
1594 1313 544 546
1595 520 544 545
1596 1443 544 547
1597 1460 544 548
1598 1455 486 487
1599 1456 486 488
1600 1457 486 489
1601 1458 486 490
1602 1615 491 493
1603 1622 491 492
1604 857 299 490
1605 160 299 300
1606 1684 299 301
1607 1624 300 489
1608 1625 300 491
1609 1683 300 490
1610 1652 300 301
1611 1687 300 302
1612 1324 474 477
1613 1339 474 545
1614 1342 474 475
1615 1343 474 544
1616 1345 474 541
1617 1348 474 478
1618 1373 474 476
1619 1331 475 477
1620 1367 475 476
1621 1368 475 479
1622 1376 475 478
1623 1333 478 480
1624 1370 478 479
1625 1459 478 481
1626 1468 478 482
1627 1328 479 480
1628 1360 479 483
1629 1374 479 482
1630 1375 479 481
1631 1320 482 484
1632 1361 482 483
1633 1450 482 485
1634 1451 482 486
1635 1470 482 489
1636 1316 483 484
1637 1363 483 485
1638 1364 483 486
1639 1614 489 491
1640 1616 489 503
1641 1619 489 490
1642 1620 490 491
1643 1686 490 492
1644 1644 509 510
1645 1648 509 511
1646 1649 509 512
1647 761 509 513
1648 1688 510 511
1649 1689 510 512
1650 1690 510 513
1651 1691 510 514
1652 1671 366 368
1653 1674 366 367
1654 1676 366 369
1655 1677 366 370
1656 1714 367 369
1657 1715 367 370
1658 1716 367 371
1659 1717 367 383
1660 1718 367 384
1661 1719 367 387
1662 1720 367 368
1663 1679 368 369
1664 1680 368 370
1665 1681 368 371
1666 1311 368 372
1667 1682 368 384
1668 1494 369 373
1669 1721 369 370
1670 1722 369 371
1671 1723 369 372
1672 1495 370 373
1673 1724 370 371
1674 1725 370 372
1675 1726 370 374
1676 758 511 512
1677 1692 511 513
1678 1693 511 514
1679 1694 511 515
1680 903 512 513
1681 1695 512 514
1682 1696 512 515
1683 1697 512 516
1684 1477 513 533
1685 1698 513 514
1686 1699 513 515
1687 1700 513 516
1688 1704 513 517
1689 1701 514 515
1690 1702 514 516
1691 1705 514 517
1692 1706 514 518
1693 1703 515 516
1694 1707 515 517
1695 1708 515 518
1696 1711 515 519
1697 1478 516 533
1698 1493 516 532
1699 1709 516 517
1700 1710 516 518
1701 1712 516 519
1702 1713 516 520
1703 1481 517 533
1704 1731 517 518
1705 1732 517 521
1706 1734 517 519
1707 1735 517 520
1708 1733 518 521
1709 1736 518 519
1710 1737 518 520
1711 1738 518 522
1712 1491 519 532
1713 1739 519 521
1714 1742 519 520
1715 1203 519 522
1716 1743 519 523
1717 1482 520 533
1718 1492 520 532
1719 1508 520 529
1720 1509 520 530
1721 1740 520 521
1722 1744 520 522
1723 1745 520 523
1724 709 521 522
1725 1741 521 523
1726 1746 522 523
1727 1747 522 524
1728 1515 523 526
1729 1748 523 524
1730 1749 523 525
1731 1516 524 526
1732 1761 524 525
1733 1500 528 529
1734 1501 528 530
1735 1502 528 531
1736 1503 529 530
1737 1504 529 531
1738 1479 530 533
1739 1486 530 532
1740 1488 530 534
1741 1505 530 531
1742 1480 531 533
1743 1487 531 532
1744 1489 531 534
1745 1490 531 535
1746 1472 532 533
1747 1474 532 536
1748 1483 532 534
1749 1484 532 535
1750 1378 533 537
1751 1471 533 536
1752 1463 533 534
1753 1473 533 535
1754 1381 534 537
1755 1383 534 538
1756 1475 534 536
1757 1485 534 535
1758 1356 535 539
1759 1382 535 537
1760 1384 535 538
1761 1467 535 540
1762 1476 535 536
1763 1359 536 539
1764 1379 536 537
1765 1380 536 538
1766 1465 536 540
1767 1466 536 541
1768 1377 537 538
1769 1385 537 539
1770 1386 537 540
1771 1387 537 541
1772 1496 371 373
1773 707 371 372
1774 1727 371 374
1775 1729 371 380
1776 1730 371 381
1777 1497 372 373
1778 1728 372 374
1779 1498 373 374
1780 1499 373 375
1781 1512 374 526
1782 1750 374 376
1783 1751 374 377
1784 1753 374 375
1785 1754 375 376
1786 1755 375 377
1787 1513 376 526
1788 1752 376 377
1789 597 376 525
1790 1758 376 378
1791 1756 377 525
1792 1757 377 379
1793 1759 377 378
1794 1760 377 380
1795 1514 525 526
1796 1517 525 527
1797 1506 526 528
1798 1507 526 529
1799 1511 526 527
1800 898 527 528
1801 1510 527 529
1802 1525 339 342
1803 1532 339 341
1804 1762 339 346
1805 1771 339 340
1806 1763 346 347
1807 1764 346 348
1808 1765 346 350
1809 1775 334 336
1810 1780 334 337
1811 1880 334 335
1812 1773 335 336
1813 1778 335 337
1814 1766 336 339
1815 1767 336 337
1816 1768 336 338
1817 173 336 340
1818 1530 337 341
1819 1769 337 339
1820 1776 337 338
1821 1795 337 340
1822 1526 338 342
1823 1531 338 341
1824 1770 338 339
1825 1796 338 340
1826 1803 304 307
1827 1813 304 306
1828 1820 304 305
1829 1824 304 309
1830 1825 304 310
1831 1828 304 311
1832 1829 304 308
1833 618 305 307
1834 709 305 306
1835 1814 305 492
1836 1826 305 309
1837 1827 305 310
1838 1830 305 308
1839 1579 306 495
1840 1812 306 492
1841 1816 306 307
1842 1817 306 308
1843 1804 307 309
1844 1237 307 308
1845 1916 308 309
1846 1917 308 310
1847 1962 309 310
1848 1965 309 311
1849 1970 309 313
1850 1964 314 397
1851 1973 314 417
1852 1974 314 317
1853 1975 314 316
1854 1976 314 315
1855 1559 347 351
1856 1781 347 348
1857 1782 347 349
1858 1784 347 350
1859 1544 348 497
1860 1560 348 351
1861 1582 348 495
1862 1590 348 500
1863 1783 348 349
1864 1785 348 350
1865 1788 348 352
1866 1561 349 351
1867 1786 349 350
1868 1787 349 406
1869 1789 349 352
1870 1790 349 353
1871 1791 349 402
1872 1551 350 351
1873 1553 350 354
1874 1793 350 352
1875 1794 350 353
1876 1557 352 354
1877 1588 352 501
1878 1593 352 355
1879 750 352 504
1880 201 352 353
1881 1805 352 356
1882 1558 353 354
1883 1594 353 355
1884 1806 353 356
1885 1807 353 357
1886 1808 353 399
1887 1809 353 402
1888 1937 397 399
1889 1939 397 400
1890 1940 397 401
1891 1979 397 398
1892 1938 398 399
1893 1926 398 400
1894 1941 398 401
1895 1942 398 402
1896 774 400 403
1897 388 400 401
1898 1932 400 402
1899 1933 400 404
1900 1898 401 403
1901 1919 401 405
1902 1786 401 402
1903 1934 401 404
1904 1889 402 406
1905 1899 402 403
1906 1920 402 405
1907 1305 402 404
1908 1882 403 406
1909 1895 403 407
1910 1900 403 404
1911 1926 403 405
1912 1890 404 406
1913 1891 404 409
1914 1901 404 407
1915 1921 404 405
1916 1944 404 413
1917 1946 404 408
1918 1885 405 406
1919 1886 405 409
1920 1918 405 410
1921 1922 405 413
1922 1927 405 407
1923 508 405 408
1924 1881 406 409
1925 1883 406 407
1926 1887 406 408
1927 1884 407 409
1928 1688 407 408
1929 1888 408 409
1930 1928 408 410
1931 2004 408 440
1932 2009 408 412
1933 2010 408 413
1934 2011 408 438
1935 2012 408 439
1936 237 409 410
1937 1892 409 412
1938 1893 409 413
1939 1894 409 411
1940 1923 410 412
1941 1924 410 413
1942 1925 410 414
1943 894 410 411
1944 2013 411 412
1945 2014 411 413
1946 318 411 414
1947 2015 411 415
1948 1945 322 400
1949 1986 322 397
1950 113 322 324
1951 1992 322 396
1952 2035 322 323
1953 1959 323 325
1954 1960 323 327
1955 1961 323 328
1956 333 323 324
1957 1997 323 396
1958 1954 324 325
1959 1957 324 327
1960 1958 324 328
1961 1987 324 396
1962 1996 324 326
1963 1836 325 395
1964 1947 325 327
1965 1948 325 328
1966 1675 325 329
1967 1124 325 326
1968 1955 325 392
1969 1956 325 396
1970 1915 326 330
1971 1951 326 327
1972 1952 326 328
1973 1953 326 329
1974 1908 327 330
1975 1911 327 331
1976 1949 327 328
1977 674 327 329
1978 1909 328 330
1979 1912 328 331
1980 1913 328 332
1981 1935 328 399
1982 1936 328 400
1983 1950 328 329
1984 1801 329 333
1985 1910 329 330
1986 1029 329 331
1987 1914 329 332
1988 1797 330 333
1989 1902 330 331
1990 1903 330 332
1991 1904 330 334
1992 1798 331 333
1993 1879 331 335
1994 1905 331 332
1995 1906 331 334
1996 1774 332 336
1997 1779 332 337
1998 1799 332 333
1999 387 332 335
2000 1896 332 403
2001 1907 332 334
2002 1772 333 336
2003 1777 333 337
2004 1800 333 334
2005 1802 333 335
2006 1527 340 342
2007 1533 340 341
2008 1552 340 354
2009 1792 340 350
2010 1602 356 358
2011 1665 356 359
2012 846 356 357
2013 1810 356 360
2014 1601 357 358
2015 1605 357 361
2016 1397 357 359
2017 1811 357 360
2018 1606 360 361
2019 1660 360 362
2020 1661 360 363
2021 1678 360 364
2022 1834 395 396
2023 1835 395 397
2024 114 395 398
2025 1837 395 399
2026 1943 396 399
2027 1406 396 400
2028 1984 396 397
2029 1985 396 398
2030 1897 399 403
2031 1929 399 400
2032 1930 399 401
2033 1931 399 402
2034 1626 301 489
2035 1627 301 491
2036 1685 301 490
2037 1815 301 492
2038 1821 301 303
2039 1838 301 302
2040 936 302 303
2041 1822 302 304
2042 1823 302 305
2043 1839 302 310
2044 1818 303 304
2045 1819 303 305
2046 1963 310 314
2047 1966 310 311
2048 1967 310 312
2049 1971 310 313
2050 1968 311 314
2051 1183 311 312
2052 1999 311 315
2053 2001 311 313
2054 1969 312 314
2055 1998 312 316
2056 2000 312 315
2057 1888 312 313
2058 1972 313 314
2059 2036 313 417
2060 2037 313 316
2061 2038 313 418
2062 2043 313 315
2063 2045 315 317
2064 1786 315 316
2065 2056 315 318
2066 2057 315 319
2067 1859 382 383
2068 1861 382 384
2069 1863 382 385
2070 1864 382 386
2071 1848 383 384
2072 1849 383 385
2073 1850 383 386
2074 1851 383 387
2075 1852 384 385
2076 1853 384 386
2077 1854 384 387
2078 1869 384 388
2079 1855 385 386
2080 1856 385 387
2081 1865 385 389
2082 1870 385 388
2083 1840 386 391
2084 1857 386 387
2085 1866 386 389
2086 1867 386 390
2087 1871 386 388
2088 1841 387 391
2089 1153 387 389
2090 1868 387 390
2091 1026 387 388
2092 1872 387 392
2093 1846 388 391
2094 1991 388 392
2095 977 388 389
2096 2003 388 390
2097 1843 389 391
2098 1993 389 392
2099 1994 389 393
2100 2002 389 390
2101 1842 390 391
2102 318 390 392
2103 796 390 393
2104 1831 391 395
2105 1844 391 392
2106 1845 391 393
2107 1847 391 394
2108 1832 392 395
2109 1980 392 394
2110 1988 392 393
2111 1989 392 396
2112 1833 393 395
2113 1981 393 394
2114 1983 393 397
2115 1990 393 396
2116 27 394 395
2117 1977 394 397
2118 1978 394 398
2119 1982 394 396
2120 1877 378 380
2121 1878 378 379
2122 35 379 380
2123 1875 379 381
2124 1876 379 382
2125 1547 380 381
2126 1873 380 382
2127 1858 381 383
2128 1860 381 384
2129 1862 381 385
2130 1874 381 382
2131 2005 440 442
2132 2006 440 443
2133 2007 440 444
2134 1158 440 441
2135 2066 441 442
2136 2067 441 443
2137 2068 441 444
2138 2069 441 445
2139 2060 442 443
2140 2061 442 444
2141 2062 442 445
2142 2070 442 446
2143 2071 442 447
2144 2063 443 444
2145 2064 443 445
2146 2065 444 445
2147 1754 445 446
2148 2072 445 447
2149 2108 446 447
2150 2016 412 413
2151 2017 412 414
2152 2018 412 415
2153 331 412 416
2154 2019 413 414
2155 2020 413 415
2156 2021 413 416
2157 2023 413 417
2158 2022 414 415
2159 956 414 416
2160 2024 414 417
2161 2029 414 418
2162 729 415 416
2163 2025 415 417
2164 2030 415 418
2165 2031 415 419
2166 2026 416 417
2167 2027 416 436
2168 2028 416 437
2169 2032 416 418
2170 2021 416 419
2171 2033 416 420
2172 2039 417 418
2173 2040 417 419
2174 2041 417 420
2175 2042 417 421
2176 2084 418 419
2177 2085 418 420
2178 2086 418 421
2179 2087 418 422
2180 2079 419 436
2181 2088 419 420
2182 2089 419 421
2183 2090 419 422
2184 2096 419 423
2185 2080 420 436
2186 413 420 421
2187 2091 420 422
2188 2093 420 424
2189 2097 420 423
2190 2102 420 435
2191 2092 421 422
2192 2094 421 424
2193 2098 421 423
2194 2100 421 425
2195 221 423 424
2196 2107 423 425
2197 1983 423 431
2198 2113 423 426
2199 2082 435 436
2200 1788 435 437
2201 2078 436 437
2202 2083 436 438
2203 2076 437 438
2204 2077 437 439
2205 2075 438 439
2206 2008 439 440
2207 2073 439 442
2208 2074 439 441
2209 2034 321 323
2210 442 321 322
2211 2053 316 318
2212 2054 316 317
2213 2055 316 421
2214 2044 317 321
2215 2046 317 318
2216 2047 317 319
2217 2048 317 421
2218 1091 318 319
2219 2058 318 320
2220 2059 318 321
2221 2095 422 424
2222 2099 422 423
2223 937 422 425
2224 2101 422 426
2225 2103 424 425
2226 2104 424 426
2227 2105 425 427
2228 2106 425 426
2229 2114 426 431
2230 2122 426 427
2231 2123 426 428
2232 2124 426 430
2233 1995 319 393
2234 2051 319 320
2235 2052 319 321
2236 2049 320 321
2237 2050 320 322
2238 2116 431 432
2239 2117 431 433
2240 2110 432 433
2241 2111 432 434
2242 353 433 434
2243 2109 433 435
2244 2081 434 436
2245 63 434 435
2246 2115 427 431
2247 2119 427 428
2248 2125 427 429
2249 2126 427 430
2250 2112 428 431
2251 2120 428 429
2252 2121 428 430
2253 2118 429 431
2254 2128 429 430
2255 2092 430 431
2256 2127 430 432
