ITEM: TIMESTEP
1
ITEM: NUMBER OF ATOMS
894
ITEM: BOX BOUNDS ff ff ff
-2.8581000000000000e+01 1.7268600000000001e+02
-3.7234000000000002e+01 1.2239000000000000e+02
-7.1478999999999999e+01 1.3506700000000001e+02
ITEM: ATOMS id type xu yu zu
1 1 125.918 2.64439 74.3285
2 1 126.381 4.54551 77.5676
3 1 126.626 3.31141 81.2667
4 1 124.096 5.0804 83.5346
5 1 126.257 5.73126 86.7368
6 1 123.761 5.60903 89.5827
7 1 120.681 4.00912 87.9358
8 1 121.177 0.251969 89.034
9 1 121.222 1.45985 92.622
10 1 118.088 3.68089 91.8938
11 1 119.291 7.17093 91.1298
12 1 119.246 9.23417 87.9206
13 1 122.087 11.7292 87.0296
14 1 119.251 14.3401 87.1695
15 1 118.28 13.2901 90.7135
16 1 121.913 13.8632 91.8906
17 1 122.025 17.1954 89.8456
18 1 118.873 18.3073 91.5986
19 1 120.865 18.8123 94.7528
20 1 123.546 21.6494 95.2559
21 1 127.116 20.6005 93.945
22 1 128.701 21.5315 97.1462
23 1 126.521 19.3354 99.5033
24 1 128.758 16.1824 99.3363
25 1 131.825 15.5454 101.536
26 1 135.331 16.2054 100.129
27 1 137.834 14.0953 98.2884
28 1 139.763 13.6583 101.576
29 1 136.48 13.4404 103.671
30 1 134.786 10.5803 101.916
31 1 138.141 8.68327 102.015
32 1 138.361 9.4682 105.815
33 1 134.749 8.5342 106.51
34 1 135.125 5.24312 104.427
35 1 138.189 4.3801 106.551
36 1 136.558 5.31103 109.951
37 1 133.153 3.65304 109.631
38 1 133.718 1.04386 106.87
39 1 137.191 -0.489099 107.458
40 1 136.677 -4.20526 106.941
41 1 134.403 -3.45931 103.994
42 1 137.455 -1.88111 102.236
43 1 139.522 -5.12815 102.927
44 1 136.742 -7.6244 102.081
45 1 137.456 -11.0156 100.42
46 1 133.516 -11.1616 100.168
47 1 131.326 -9.31449 97.6822
48 1 128.252 -8.92942 99.9503
49 1 125.507 -6.37037 98.8703
50 1 125.874 -4.44834 95.4832
51 1 126.874 -1.3103 97.3792
52 1 129.939 -2.96327 98.8783
53 1 131.388 -4.00327 95.5251
54 1 130.647 -0.631059 93.898
55 1 132.266 1.16405 96.8041
56 1 135.508 -0.764932 96.461
57 1 135.648 -0.210909 92.725
58 1 135.037 3.55698 93.116
59 1 138.071 4.04398 95.376
60 1 140.07 2.12203 92.7791
61 1 138.698 4.27491 89.8511
62 1 140.094 7.50696 91.5242
63 1 143.262 5.55897 92.2583
64 1 144.262 5.28187 88.6334
65 1 142.968 8.89889 88.1954
66 1 145.054 10.4788 90.8775
67 1 148.062 8.31486 89.8474
68 1 147.727 10.1038 86.3103
69 1 146.98 13.5368 87.9544
70 1 150.143 13.1938 90.0595
71 1 152.227 12.0898 87.0373
72 1 150.871 14.8409 84.8142
73 1 151.803 17.547 87.4723
74 1 155.327 15.9799 87.5742
75 1 155.636 16.187 83.72
76 1 154.425 19.8831 83.832
77 1 157.039 22.5243 84.636
78 1 154.531 25.2254 85.716
79 1 153.5 25.3903 89.4881
80 1 150.278 27.2424 88.5831
81 1 149.086 24.5086 86.0929
82 1 149.728 21.8363 88.8393
83 1 147.127 23.6564 90.8674
84 1 144.908 23.6195 87.8351
85 1 145.199 19.8385 87.2841
86 1 144.379 18.9083 90.9815
87 1 141.527 21.5114 90.7693
88 1 140.028 19.9305 87.5129
89 1 140.427 16.5223 89.1502
90 1 138.777 17.6724 92.4003
91 1 136.027 19.6575 90.5059
92 1 135.111 18.8045 86.8237
93 1 135.739 15.1032 87.0877
94 1 135.878 14.6363 90.9999
95 1 132.414 15.9533 91.6038
96 1 130.968 12.8271 89.9277
97 1 133.437 10.7982 92.0689
98 1 132.172 12.5711 95.236
99 1 128.502 11.8111 94.159
100 1 129.221 8.11918 93.3199
101 1 131.141 7.17414 96.673
102 1 128.84 9.47221 98.8451
103 1 125.838 7.68611 97.2851
104 1 127.16 4.30202 98.0091
105 1 128.064 5.23903 101.608
106 1 124.645 6.80313 102.3
107 1 122.803 3.85789 100.769
108 1 124.993 1.28873 102.502
109 1 124.571 3.03282 105.866
110 1 120.805 3.88281 105.758
111 1 119.27 1.96651 102.771
112 1 118.219 3.45765 99.447
113 1 114.63 4.71462 99.6609
114 1 115.003 7.05683 102.672
115 1 117.984 8.47091 100.897
116 1 115.943 8.69685 97.5269
117 1 113.115 10.4768 99.526
118 1 115.769 12.5769 101.276
119 1 116.966 13.773 97.809
120 1 113.618 15.2741 96.6798
121 1 112.968 16.5749 100.104
122 1 116.407 18.279 100.636
123 1 115.692 19.6032 97.0648
124 1 112.277 20.9771 97.8727
125 1 113.684 22.5151 101.076
126 1 116.557 24.2213 99.1119
127 1 114.183 25.2443 96.1566
128 1 111.841 26.5802 98.7987
129 1 113.078 30.1364 98.9677
130 1 115.509 31.0604 101.78
131 1 113.129 33.1644 104.073
132 1 110.06 31.0473 103.432
133 1 111.919 27.8612 104.511
134 1 110.866 25.4921 107.312
135 1 113.442 25.9401 110.178
136 1 114.801 22.463 110.072
137 1 115.811 20.803 106.824
138 1 114.359 17.199 106.01
139 1 116.841 14.3991 106.625
140 1 116.961 10.4671 106.033
141 1 115.432 8.19703 108.824
142 1 118.037 7.14814 111.501
143 1 115.448 5.64611 113.776
144 1 115.627 1.82499 112.995
145 1 112.138 1.462 114.105
146 1 112.783 -1.84616 115.931
147 1 114.165 -2.78508 119.386
148 1 117.119 -4.91819 118.119
149 1 120.762 -3.72613 117.31
150 1 143.548 -0.784997 104.009
151 1 144.088 0.711018 100.592
152 1 142.273 -1.63487 98.0692
153 1 143.666 -4.80396 96.4102
154 1 141.515 -5.00705 93.245
155 1 140.692 -8.75208 92.8592
156 1 140.673 -9.73135 96.4981
157 1 136.843 -9.93145 96.6411
158 1 136.813 -11.7194 93.3502
159 1 139.089 -14.6204 94.3843
160 1 142.291 -13.4383 92.5984
161 1 145.652 -11.6362 92.6984
162 1 147.429 -8.73592 90.9553
163 1 150.535 -10.8749 91.2633
164 1 149.114 -13.4221 88.6893
165 1 147.283 -10.819 86.5992
166 1 150.321 -8.5589 86.0542
167 1 152.689 -11.5459 85.1932
168 1 150.799 -12.0589 81.91
169 1 152.065 -10.399 78.5886
170 1 150.316 -7.3351 77.1696
171 1 149.571 -9.10513 73.7546
172 1 147.741 -11.9031 75.5446
173 1 144.998 -9.33821 76.4896
174 1 142.661 -8.01126 73.8104
175 1 142.483 -4.14293 73.4084
176 1 140.193 -1.96386 75.5664
177 1 138.322 -1.42371 72.2534
178 1 137.323 -5.19698 71.8914
179 1 136.32 -5.38101 75.6705
180 1 134.165 -2.30184 75.0684
181 1 132.709 -3.95591 71.9715
182 1 132.015 -7.25514 73.8575
183 1 130.277 -5.31005 76.6485
184 1 127.992 -3.4889 74.1574
185 1 127.462 -6.64912 71.9884
186 1 126.552 -9.47023 74.5336
187 1 125.79 -7.68526 77.7807
188 1 124.026 -4.49899 76.7677
189 1 120.815 -5.64822 78.4546
190 1 122.474 -6.33035 81.7779
191 1 124.565 -3.05295 81.6258
192 1 121.263 -0.988867 80.9867
193 1 119.558 -3.15211 83.7488
194 1 117.177 -1.47807 86.479
195 1 118.098 -4.39728 88.6302
196 1 121.272 -5.9984 90.1572
197 1 122.936 -8.86253 88.1021
198 1 126.438 -9.87145 89.4061
199 1 129.386 -8.20938 90.9762
200 1 131.157 -8.86226 87.5741
201 1 128.46 -6.87724 85.7111
202 1 128.792 -4.07221 88.2961
203 1 132.642 -4.01201 88.0109
204 1 132.084 -3.89199 84.3081
205 1 129.968 -0.878904 84.717
206 1 132.44 0.742131 87.1389
207 1 135.61 0.204091 85.137
208 1 134.158 1.68238 81.8438
209 1 133.183 4.8493 83.9747
210 1 136.764 4.64301 85.2529
211 1 138.316 4.60516 81.7667
212 1 136.032 7.30215 80.5606
213 1 137 9.9271 83.0777
214 1 140.656 8.79796 82.4717
215 1 140.34 9.45707 78.7505
216 1 138.572 12.8642 79.2945
217 1 141.364 13.9583 81.7387
218 1 144.153 12.9061 79.1947
219 1 142.261 14.6451 76.4595
220 1 141.641 17.8522 78.3857
221 1 145.409 17.8823 79.3388
222 1 146.37 17.1192 75.7687
223 1 144.067 19.9213 74.6647
224 1 145.823 22.3966 76.9828
225 1 149.331 21.6355 75.7357
226 1 150.394 22.9045 72.3497
227 1 153.145 20.3403 71.9327
228 1 152.059 17.1121 69.8465
229 1 154.88 15.0249 71.5047
230 1 153.774 16.0162 75.0297
231 1 150.11 14.825 74.0256
232 1 151.649 11.5658 72.6185
233 1 153.481 11.2957 76.0518
234 1 150.251 11.6869 78.1218
235 1 148.224 9.50778 75.8725
236 1 150.772 6.69267 75.6767
237 1 150.899 6.70977 79.5568
238 1 147.068 6.19681 79.4937
239 1 147.241 3.26294 76.9335
240 1 150.325 1.59995 78.6499
241 1 151.141 2.41579 82.3381
242 1 147.458 2.91877 83.2751
243 1 145.819 1.01892 80.3789
244 1 147.475 -2.30596 80.806
245 1 145.634 -2.46591 84.1802
246 1 142.254 -1.76099 82.4441
247 1 142.893 -4.52513 79.9139
248 1 143.452 -6.92904 82.909
249 1 140.487 -5.57706 84.795
250 1 137.91 -5.43904 81.963
251 1 139.159 -8.86319 80.5908
252 1 138.903 -10.5781 84.031
253 1 135.213 -9.33718 84.493
254 1 134.207 -9.89225 80.8729
255 1 135.648 -13.2832 80.8067
256 1 133.992 -14.3851 84.084
257 1 130.658 -13.2263 82.65
258 1 131.341 -15.2452 79.3578
259 1 132.946 -18.2961 80.8529
260 1 132.38 -18.4253 84.6563
261 1 135.038 -17.2444 87.2374
262 1 136.438 -20.7274 88.2454
263 1 136.773 -21.8575 84.5872
264 1 138.86 -18.6643 83.7961
265 1 141.257 -18.9074 86.7392
266 1 142.018 -22.6304 86.0713
267 1 142.798 -21.4963 82.5089
268 1 145.111 -18.8632 83.9341
269 1 146.733 -21.3634 86.4053
270 1 147.457 -23.8475 83.5562
271 1 148.807 -20.8561 81.425
272 1 151.067 -19.8131 84.3222
273 1 153.08 -23.0883 84.7314
274 1 153.829 -22.8621 80.9031
275 1 155.263 -19.2719 81.1761
276 1 157.149 -20.3459 84.3483
277 1 158.577 -23.3301 82.2842
278 1 161.703 -22.1359 80.25
279 1 160.969 -21.8889 76.4809
280 1 162.686 -25.081 75.2178
281 1 161.257 -27.1542 77.995
282 1 157.629 -26.5143 77.107
283 1 155.145 -27.2344 74.1207
284 1 155.149 -24.578 71.2426
285 1 151.376 -23.706 71.4196
286 1 150.059 -21.501 74.2945
287 1 147.031 -22.7982 76.1517
288 1 143.814 -21.8691 74.2166
289 1 140.675 -20.3101 75.7895
290 1 137.957 -22.7643 76.9546
291 1 134.537 -23.3863 75.2696
292 1 131.358 -21.4612 76.1007
293 1 129.045 -22.7973 78.8569
294 1 125.844 -24.6033 77.593
295 1 123.173 -22.0241 76.719
296 1 124.193 -18.5711 75.8459
297 1 121.134 -17.233 73.9719
298 1 117.51 -18.653 74.2159
299 1 27.1634 77.1352 80.5365
300 1 24.8784 80.1172 80.9845
301 1 21.5114 80.5142 82.9276
302 1 18.7303 81.9171 80.6966
303 1 16.9972 84.4501 83.1307
304 1 13.3731 84.464 82.0287
305 1 13.1601 81.352 79.7876
306 1 11.7187 78.7349 82.3646
307 1 8.81379 81.0987 82.9177
308 1 8.47888 81.5626 79.0507
309 1 10.3291 84.7057 78.0937
310 1 13.5082 85.2698 76.0606
311 1 16.0084 88.125 76.8887
312 1 15.1163 89.351 73.3405
313 1 11.3823 89.3959 74.1535
314 1 12.0613 91.6661 77.2027
315 1 14.5235 93.798 75.0386
316 1 11.7974 94.22 72.4617
317 1 10.0043 96.5483 74.8139
318 1 11.2742 100.148 75.7739
319 1 13.8081 100.097 78.7967
320 1 11.8719 102.656 80.6228
321 1 8.43285 100.839 80.641
322 1 8.98364 98.9184 83.9549
323 1 8.29064 100.322 87.4488
324 1 11.1977 101.669 89.5561
325 1 13.529 100.122 92.0623
326 1 11.415 101.672 94.8643
327 1 8.08491 101.037 92.9362
328 1 8.34485 97.3254 92.4072
329 1 9.39005 96.9885 96.1033
330 1 6.29787 99.1354 97.0713
331 1 3.91862 97.2534 94.7911
332 1 5.30172 93.8213 96.0632
333 1 4.6318 95.0024 99.6413
334 1 1.09955 96.4393 98.9022
335 1 -0.431589 93.6431 96.8321
336 1 1.75743 90.6141 97.7162
337 1 2.49257 90.8121 101.481
338 1 2.0285 87.262 102.716
339 1 3.74939 85.972 99.5873
340 1 6.93288 87.8052 100.767
341 1 6.63869 86.0571 104.253
342 1 5.68853 82.5858 102.94
343 1 6.83364 79.3487 104.666
344 1 5.28557 77.6686 101.442
345 1 6.8416 77.5186 97.9861
346 1 3.56344 77.5386 95.987
347 1 3.77251 78.3056 92.1639
348 1 7.26354 78.8377 90.482
349 1 6.62361 82.5818 90.351
350 1 6.35665 82.8597 94.1229
351 1 9.74675 81.2788 94.78
352 1 11.4729 83.283 92.028
353 1 9.971 86.4819 93.369
354 1 11.348 85.914 96.852
355 1 14.791 85.0661 95.5451
356 1 14.877 88.1971 93.3271
357 1 14.3252 90.5681 96.2643
358 1 17.1309 88.7172 98.0344
359 1 19.494 88.969 94.9602
360 1 19.2419 92.8581 95.0394
361 1 19.6368 92.6423 98.8034
362 1 23.2088 91.4462 98.6375
363 1 23.6918 93.8901 95.6803
364 1 22.5538 96.9962 97.4395
365 1 24.3858 95.8892 100.635
366 1 27.6738 95.9912 98.3975
367 1 26.5378 99.2462 96.6184
368 1 26.0247 100.9 100.018
369 1 29.3929 99.6221 101.326
370 1 31.255 100.649 98.1915
371 1 29.837 104.279 98.4515
372 1 31.014 104.288 102.126
373 1 34.5713 103.163 101.088
374 1 34.6233 105.907 98.3293
375 1 35.5633 109.426 99.4233
376 1 34.0083 111.195 96.3901
377 1 30.2719 112.339 96.6301
378 1 29.985 112.391 92.8158
379 1 31.1361 108.701 92.4098
380 1 28.5149 107.669 95.084
381 1 25.9227 109 92.6969
382 1 27.5959 107.032 89.9685
383 1 27.5069 103.713 91.8818
384 1 23.7267 103.973 92.806
385 1 23.1348 105.056 89.1408
386 1 25.0371 101.956 87.6846
387 1 23.1448 99.7993 90.1787
388 1 19.776 101.361 89.2719
389 1 20.591 101.337 85.4737
390 1 23.2592 98.9182 84.0064
391 1 22.6181 96.0911 86.4075
392 1 19.16 97.1812 87.9548
393 1 17.3433 97.2402 84.6697
394 1 17.5953 93.4219 84.4976
395 1 16.4311 93.3941 88.1639
396 1 13.4211 95.6001 87.2419
397 1 12.6031 93.1941 84.2839
398 1 12.9731 90.0041 86.4148
399 1 10.703 91.1421 89.4768
400 1 8.2058 93.0452 87.1459
401 1 7.91688 89.8351 85.086
402 1 7.23786 87.705 88.0399
403 1 4.65362 90.1621 89.4298
404 1 2.82464 90.4802 86.0881
405 1 2.80773 86.7229 85.5491
406 1 1.77851 85.9808 89.1261
407 1 -1.03752 88.5471 88.9672
408 1 -2.44935 87.835 85.4433
409 1 -0.862378 84.5336 84.2052
410 1 1.86673 84.1946 81.5938
411 1 0.325759 84.0134 78.1167
412 1 -1.71727 87.2547 78.2048
413 1 1.41984 88.9159 79.4019
414 1 3.51782 87.1126 76.5867
415 1 0.843756 88.3156 74.0256
416 1 0.869793 91.735 75.7068
417 1 4.66393 91.926 75.0318
418 1 4.45292 91.5488 71.2175
419 1 1.40183 93.6747 71.1067
420 1 2.77091 96.6001 73.247
421 1 5.83516 96.1521 70.9156
422 1 3.87105 96.3528 67.7056
423 1 1.967 99.3631 69.0918
424 1 5.27721 101.164 70
425 1 7.01134 100.07 66.6507
426 1 3.90412 101.31 64.9006
427 1 4.96221 104.864 64.2277
428 1 3.7412 107.587 66.629
429 1 1.067 109.34 64.3648
430 1 -0.120119 106.16 62.6946
431 1 -0.836172 104.529 66.0998
432 1 -4.19944 103.146 67.2599
433 1 -5.49335 105.537 70.0281
434 1 -5.44337 103.037 72.8021
435 1 -2.45536 100.803 73.4363
436 1 -3.05147 96.8922 73.758
437 1 -3.01232 95.6503 77.3412
438 1 -3.16934 92.1242 79.176
439 1 -6.71538 90.6461 79.895
440 1 -8.10726 91.7013 83.3591
441 1 -11.5272 90.2942 82.68
442 1 -11.4712 86.8149 84.45
443 1 -14.0551 85.6179 82.1198
444 1 -15.9861 83.7068 84.825
445 1 -18.5811 84.688 87.476
446 1 -16.5591 83.4999 90.5392
447 1 -14.017 85.571 92.6823
448 1 8.27407 91.6523 105.754
449 1 11.7892 91.8743 104.412
450 1 12.7661 88.2734 103.296
451 1 14.2501 85.4782 105.469
452 1 16.0391 83.3452 102.837
453 1 15.3189 79.703 103.874
454 1 11.9359 80.1979 105.458
455 1 10.0798 78.6577 102.472
456 1 12.6237 75.9128 102.306
457 1 12.1836 74.6637 105.899
458 1 15.3858 76.204 107.386
459 1 17.1188 79.0251 109.282
460 1 19.972 81.5183 108.78
461 1 20.6779 80.9603 112.455
462 1 21.8358 77.3153 111.745
463 1 23.344 78.0881 108.335
464 1 25.584 80.9434 109.545
465 1 26.8331 78.9584 112.671
466 1 28.7833 76.6141 110.366
467 1 32.5654 77.28 109.566
468 1 33.6064 78.723 106.205
469 1 35.9455 75.6819 105.408
470 1 33.0465 73.2738 105.831
471 1 31.4804 74.7907 102.631
472 1 33.0445 74.0707 99.249
473 1 34.0356 77.1569 97.0919
474 1 31.5335 78.9579 94.8238
475 1 33.7137 77.5071 92.0107
476 1 32.8906 73.7847 92.9249
477 1 29.0965 74.6438 93.3609
478 1 29.2425 76.2491 89.9127
479 1 31.0104 73.1608 88.5757
480 1 28.4364 70.7816 90.2008
481 1 25.5793 72.8207 88.6927
482 1 27.0934 72.6108 85.1706
483 1 28.1764 68.9227 85.6108
484 1 25.0172 67.1135 87.0298
485 1 22.1621 69.5455 86.5368
486 1 22.8622 71.2357 83.2286
487 1 19.749 69.6836 81.6885
488 1 17.4389 70.9375 84.3997
489 1 19.105 74.4528 84.4606
490 1 18.5891 74.7538 80.5605
491 1 15.0099 73.2896 81.0756
492 1 11.8717 74.8367 79.1555
493 1 9.84951 73.4787 81.9957
494 1 9.61553 73.8515 85.8388
495 1 11.6236 71.2715 87.962
496 1 11.8406 72.1895 91.716
497 1 12.0738 75.2786 93.7959
498 1 15.7218 74.1296 94.512
499 1 16.5328 74.1378 90.7671
500 1 14.9307 77.6018 90.4659
501 1 16.894 78.9779 93.4931
502 1 19.919 77.513 91.837
503 1 19.1841 79.4481 88.7649
504 1 18.4521 82.6371 90.7389
505 1 21.511 82.6201 92.9728
506 1 24.0332 82.1322 90.0507
507 1 22.3192 85.254 88.3657
508 1 22.7421 86.8769 91.7838
509 1 26.4803 86.14 91.9956
510 1 27.0293 87.1499 88.4426
511 1 25.7352 90.6718 88.7276
512 1 27.6741 90.8438 92.0766
513 1 30.9222 89.9217 90.3505
514 1 30.2952 92.3718 87.4114
515 1 29.5872 95.2379 89.9105
516 1 32.8572 94.4418 91.9176
517 1 34.7442 94.2178 88.6805
518 1 33.3742 97.431 87.2035
519 1 34.2091 99.2051 90.5585
520 1 37.6261 97.5999 90.6156
521 1 38.0962 98.7301 87.0274
522 1 37.2972 102.343 87.9675
523 1 39.8013 102.539 90.8197
524 1 43.4784 102.772 90.0247
525 1 44.5845 101.453 93.394
526 1 45.3375 97.531 93.44
527 1 44.7424 97.407 97.2732
528 1 41.3435 99.1362 96.9723
529 1 40.3834 96.3919 94.253
530 1 41.6945 93.6658 96.6662
531 1 39.4414 95.3769 99.3524
532 1 36.2693 95.272 97.1622
533 1 36.9434 91.8347 95.877
534 1 37.7194 90.3077 99.2713
535 1 34.3732 91.7938 100.563
536 1 32.6402 89.9118 97.6652
537 1 34.4194 86.5339 98.4491
538 1 33.9673 86.8901 102.307
539 1 31.2431 89.2431 103.712
540 1 28.8861 88.649 100.75
541 1 30.3502 85.3571 99.4452
542 1 30.0911 83.2932 102.552
543 1 26.2871 83.7123 102.166
544 1 26.447 82.4211 98.5272
545 1 28.4372 79.372 99.618
546 1 25.61 78.629 102.171
547 1 22.895 79.3742 99.6712
548 1 24.266 77.4949 96.6271
549 1 25.3881 74.5348 98.8951
550 1 21.9371 74.2399 100.583
551 1 20.131 74.0989 97.1071
552 1 22.76 71.9227 95.4401
553 1 22.8262 69.5408 98.252
554 1 19.0138 69.1898 98.447
555 1 19.0128 68.4147 94.7169
556 1 21.8301 65.7367 95.2458
557 1 20.661 64.2797 98.506
558 1 17.0495 65.3557 99.279
559 1 16.1785 68.2977 101.669
560 1 15.2665 66.2168 104.822
561 1 18.4157 64.0336 104.52
562 1 20.6249 67.2408 104.422
563 1 19.0567 69.0049 107.405
564 1 19.2886 65.8667 109.638
565 1 22.9699 65.8147 108.623
566 1 23.2299 69.443 109.666
567 1 21.3147 68.8198 112.972
568 1 23.6747 65.9236 113.898
569 1 26.697 68.1929 112.884
570 1 25.3468 70.9851 115.113
571 1 25.2707 69.09 118.481
572 1 29.003 68.1548 117.802
573 1 30.0631 71.8493 117.306
574 1 27.9139 72.7983 120.348
575 1 29.8029 70.0251 122.334
576 1 33.1921 71.4573 123.677
577 1 36.2204 70.0113 121.795
578 1 37.4962 67.462 124.366
579 1 34.0431 66.1828 125.067
580 1 33.3371 65.0557 121.518
581 1 34.7262 62.4236 118.921
582 1 37.7463 63.6338 116.741
583 1 36.0843 63.0428 113.289
584 1 33.3884 65.4898 112.023
585 1 30.1793 63.9417 110.756
586 1 30.6273 62.8287 107.079
587 1 28.1485 63.5717 104.24
588 1 25.4693 60.8976 103.577
589 1 25.3202 58.4786 100.569
590 1 23.5432 59.2457 97.2889
591 1 19.8539 58.2596 96.902
592 1 19.2129 55.0667 94.7801
593 1 19.2778 55.9547 91.0708
594 1 21.135 58.9578 89.9498
595 1 21.675 58.2758 86.2207
596 1 19.596 55.8089 84.0298
597 1 100.313 98.0295 -20.237
598 1 102.676 95.0756 -19.8349
599 1 102.344 92.3705 -17.1048
600 1 104.748 92.3015 -14.1349
601 1 107.715 89.8675 -14.2049
602 1 106.38 86.8142 -12.3329
603 1 102.47 87.0742 -11.9667
604 1 101.582 84.0819 -14.1327
605 1 103.312 82.0029 -11.4519
606 1 101.383 83.624 -8.68796
607 1 103.774 86.1472 -7.4211
608 1 103.856 89.9633 -7.28995
609 1 107.259 91.5565 -6.96912
610 1 106.073 93.5295 -3.97893
611 1 105.618 90.2554 -1.96298
612 1 109.157 89.1214 -3.12398
613 1 110.615 92.5055 -1.96997
614 1 108.542 92.6746 1.22596
615 1 111.695 90.9923 2.47811
616 1 114.993 92.9764 2.28315
617 1 117.494 92.6965 -0.621726
618 1 119.85 90.3652 1.3224
619 1 117.246 87.6719 1.96845
620 1 117.954 85.408 -1.09844
621 1 121.039 83.2798 -1.64547
622 1 123.547 84.6169 -4.22466
623 1 123.177 83.7099 -7.9958
624 1 126.054 81.1789 -7.59588
625 1 123.963 79.3509 -4.90961
626 1 120.691 79.1028 -6.82967
627 1 122.442 77.8379 -9.97296
628 1 123.982 75.1967 -7.7578
629 1 120.36 74.4936 -6.25058
630 1 118.877 74.0727 -9.72978
631 1 121.484 71.4526 -10.7489
632 1 121.428 69.7777 -7.45168
633 1 117.818 68.8264 -7.16358
634 1 116.406 69.1735 -10.7427
635 1 119.214 68.4035 -13.331
636 1 117.807 65.4724 -15.2929
637 1 114.347 67.1144 -15.4558
638 1 115.901 70.5296 -16.5729
639 1 117.888 68.7235 -19.3041
640 1 114.943 66.2933 -20.2131
641 1 113.071 66.9694 -23.5772
642 1 109.86 66.5585 -21.5641
643 1 107.617 69.6805 -20.783
644 1 107.576 69.1105 -17.0078
645 1 105.992 72.0366 -14.9439
646 1 105.914 75.6346 -16.3709
647 1 108.322 76.4688 -13.4929
648 1 110.885 74.2588 -15.2499
649 1 110.205 76.0489 -18.595
650 1 110.81 79.3701 -16.949
651 1 114.033 78.129 -15.1211
652 1 115.295 76.5121 -18.4402
653 1 114.976 79.912 -19.982
654 1 116.323 81.782 -16.955
655 1 119.629 79.8889 -16.7583
656 1 120.277 80.6819 -20.5221
657 1 119.296 84.3518 -19.921
658 1 121.906 84.4909 -17.0582
659 1 124.374 83.2347 -19.6422
660 1 123.767 86.0646 -22.102
661 1 123.969 88.8367 -19.427
662 1 127.389 87.3775 -18.3421
663 1 128.489 87.1044 -21.9741
664 1 127.36 90.6166 -22.7461
665 1 129.077 91.8578 -19.518
666 1 132.414 90.2635 -20.5661
667 1 132.265 91.5657 -24.1583
668 1 132.1 95.0717 -22.7082
669 1 135.321 94.5008 -20.8781
670 1 137.231 93.2657 -23.9402
671 1 135.761 95.6658 -26.5455
672 1 136.1 99.0831 -24.5653
673 1 139.578 100.345 -23.8642
674 1 138.558 103.776 -22.5612
675 1 136.898 103.134 -19.0728
676 1 139.311 103.134 -16.2427
677 1 137.383 100.19 -14.7626
678 1 137.003 96.996 -16.7267
679 1 134.986 95.4149 -13.8966
680 1 132.195 97.9583 -13.5655
681 1 129.542 96.2081 -15.7066
682 1 130.468 92.6888 -14.3846
683 1 129.957 94.154 -10.7745
684 1 126.682 95.7753 -11.8795
685 1 125.532 92.3541 -13.1796
686 1 126.473 90.3321 -10.0157
687 1 124.895 92.9013 -7.72376
688 1 122.312 95.1475 -9.35971
689 1 121.125 92.8634 -12.3277
690 1 121.556 90.0102 -9.88784
691 1 118.956 90.8794 -7.24894
692 1 116.04 90.2594 -9.55412
693 1 117.715 87.0552 -10.793
694 1 117.835 85.9262 -7.12392
695 1 113.992 86.4981 -6.784
696 1 113.324 84.5262 -10.022
697 1 115.61 81.5112 -9.46496
698 1 114.764 81.2979 -5.64071
699 1 111.033 81.5059 -6.30487
700 1 110.694 79.131 -9.26897
701 1 112.679 76.5338 -7.43074
702 1 110.66 77.1158 -4.28373
703 1 107.261 76.7547 -5.91992
704 1 108.31 73.5425 -7.625
705 1 109.925 72.2325 -4.32486
706 1 107.653 73.4117 -1.52296
707 1 104.272 74.2317 -3.22203
708 1 102.915 77.5757 -4.373
709 1 100.541 78.3208 -1.37499
710 1 103.369 77.4378 1.0582
711 1 105.763 79.8029 -0.550907
712 1 103.28 82.678 -0.50388
713 1 102.633 81.7499 3.15828
714 1 106.255 81.8889 4.19721
715 1 106.589 85.3472 2.38309
716 1 103.93 87.1472 4.38909
717 1 104.551 85.3149 7.7322
718 1 108.338 85.2589 7.95312
719 1 108.478 88.8142 6.54818
720 1 106.525 89.9464 9.70824
721 1 109.103 88.1731 11.8681
722 1 112.066 89.8952 9.98906
723 1 110.322 93.3674 10.2971
724 1 109.587 92.7124 14.0011
725 1 112.27 93.7503 16.6811
726 1 114.282 90.7071 18.2032
727 1 113.242 91.2451 22.0303
728 1 109.528 91.1161 20.8313
729 1 109.553 88.019 18.4884
730 1 110.155 84.5327 19.8943
731 1 113.044 82.4507 18.5522
732 1 110.6 80.0417 16.7822
733 1 109.841 80.8887 13.0953
734 1 107.949 79.7398 10.0102
735 1 110.242 77.2578 8.10423
736 1 110.588 75.9459 4.51929
737 1 110.631 72.0119 4.77216
738 1 109.152 68.8098 3.09401
739 1 109.812 66.6469 6.17802
740 1 106.119 67.4169 7.5071
741 1 104.78 65.4568 4.46393
742 1 107.399 62.5987 4.99191
743 1 107.858 62.0118 8.88312
744 1 106.656 63.0999 12.3302
745 1 107.353 66.82 13.5123
746 1 124.385 73.7728 -17.5942
747 1 123.869 75.2138 -21.1572
748 1 120.644 73.5149 -22.0912
749 1 119.584 72.4669 -25.6522
750 1 116.909 75.195 -26.1752
751 1 113.991 73.7478 -28.1892
752 1 114.186 70.1236 -26.8092
753 1 111.29 70.7356 -24.2932
754 1 109.116 72.1756 -27.1531
755 1 110.19 69.1986 -29.245
756 1 112.819 70.4286 -31.6321
757 1 116.583 70.4916 -32.155
758 1 119.119 73.2229 -33.147
759 1 119.695 71.2856 -36.339
760 1 116.2 71.9276 -37.521
761 1 116.784 75.776 -37.1439
762 1 120.25 75.3939 -38.637
763 1 118.749 73.7928 -41.696
764 1 116.946 77.1251 -42.5452
765 1 118.905 79.9513 -44.2442
766 1 120.372 82.1362 -41.3883
767 1 118.866 85.2941 -42.8104
768 1 115.409 83.5624 -43.1494
769 1 114.02 84.5361 -39.7045
770 1 112.413 88.1562 -39.2806
771 1 113.842 90.9104 -37.0135
772 1 113.441 90.6134 -33.2432
773 1 111.818 94.0837 -33.4382
774 1 109.295 92.7736 -36.0164
775 1 108.505 89.7184 -33.7703
776 1 107.949 91.9616 -30.7031
777 1 105.501 93.7805 -32.8782
778 1 103.983 90.4154 -34.2434
779 1 103.332 89.3674 -30.6813
780 1 101.694 92.6205 -29.9452
781 1 99.4437 92.4283 -32.9373
782 1 98.4155 88.7492 -32.5043
783 1 98.6124 87.8232 -28.8342
784 1 98.3776 91.0823 -26.9111
785 1 96.2134 89.4351 -24.1461
786 1 99.0754 87.052 -23.2011
787 1 101.399 90.1145 -23.2569
788 1 99.3257 92.5074 -21.0339
789 1 97.7335 89.8203 -18.7819
790 1 99.1765 86.638 -17.1418
791 1 96.7104 84.761 -19.6839
792 1 97.2834 80.9568 -20.0469
793 1 99.9495 78.6675 -18.4829
794 1 99.9374 76.4636 -21.6769
795 1 103.567 75.7647 -22.9739
796 1 103.981 78.4227 -25.4979
797 1 102.148 81.3107 -23.689
798 1 104.238 80.8128 -20.738
799 1 107.4 80.4479 -22.913
800 1 106.701 83.727 -24.99
801 1 106.702 85.9942 -21.8679
802 1 109.93 84.4401 -20.677
803 1 111.536 84.9921 -24.081
804 1 110.498 88.7002 -24.0797
805 1 111.87 89.0454 -20.5969
806 1 115.215 87.4762 -21.7089
807 1 115.462 90.0012 -24.4618
808 1 114.202 92.8604 -22.1079
809 1 116.944 92.2542 -19.5549
810 1 119.543 92.2031 -22.4409
811 1 118.097 95.5364 -23.689
812 1 117.993 96.9895 -20.1088
813 1 121.674 96.1924 -19.4798
814 1 122.782 97.1554 -23.134
815 1 120.833 100.48 -22.804
816 1 122.434 100.752 -19.3067
817 1 126.026 100.428 -20.7618
818 1 124.606 102.669 -23.4019
819 1 123.547 105.448 -21.1048
820 1 125.986 105.12 -18.2106
821 1 129.286 104.891 -19.9667
822 1 130.371 108.28 -21.7079
823 1 133.973 107.368 -22.2359
824 1 133.332 105.308 -25.4193
825 1 133.045 107.467 -28.4703
826 1 130.092 105.527 -29.8795
827 1 127.455 104.431 -27.3583
828 1 125.26 102.28 -29.6365
829 1 128.03 99.4982 -29.9106
830 1 126.666 97.1431 -27.2074
831 1 123.117 97.5923 -28.3894
832 1 124.269 96.9401 -32.0076
833 1 125.962 93.6999 -30.6255
834 1 122.578 92.4011 -29.1925
835 1 120.66 93.1252 -32.4324
836 1 123.403 91.2712 -34.4074
837 1 125.244 88.3597 -32.8503
838 1 122.941 87.6227 -29.9203
839 1 119.796 88.4809 -31.7572
840 1 120.063 85.6879 -34.2131
841 1 118.665 83.2147 -31.528
842 1 115.84 85.6128 -30.4741
843 1 114.672 85.688 -34.0911
844 1 114.681 81.8679 -34.011
845 1 113.075 81.8149 -30.59
846 1 110.333 84.4598 -30.7882
847 1 109.166 83.314 -34.2543
848 1 108.794 79.7819 -33.1302
849 1 106.675 80.6769 -30.1651
850 1 104.624 83.1079 -32.1792
851 1 104.129 80.5501 -34.9542
852 1 103.374 77.6759 -32.488
853 1 100.399 79.8349 -31.116
854 1 99.4266 80.568 -34.707
855 1 99.6918 77.1979 -36.627
856 1 100.479 74.6787 -33.7249
857 1 103.974 73.3776 -33.448
858 1 103.582 70.1965 -35.6519
859 1 102.689 72.1326 -38.905
860 1 105.571 74.5598 -38.1411
861 1 108.155 71.6825 -37.674
862 1 106.739 70.0945 -40.9352
863 1 107.14 73.6068 -42.4912
864 1 110.711 74.1678 -41.1881
865 1 111.977 70.8335 -42.3741
866 1 110.264 70.8785 -45.7361
867 1 111.989 74.1469 -46.3751
868 1 115.558 73.0668 -45.709
869 1 115.358 70.4946 -48.4241
870 1 113.951 73.0919 -50.9902
871 1 116.762 75.4491 -50.6711
872 1 119.387 72.5868 -50.708
873 1 117.852 71.2267 -53.9922
874 1 119.316 73.27 -56.9122
875 1 117.04 76.0432 -58.5193
876 1 116.144 73.808 -61.4794
877 1 115.293 70.7018 -59.6493
878 1 113.198 72.3958 -56.8123
879 1 109.505 73.0799 -57.7023
880 1 109.511 76.7322 -58.5792
881 1 107.342 78.2263 -55.8442
882 1 108.676 77.9804 -52.2513
883 1 106.964 76.0271 -49.3362
884 1 104.753 78.5393 -47.4932
885 1 102.821 78.4033 -44.2984
886 1 99.735 80.6683 -44.2283
887 1 96.5909 78.6792 -43.7533
888 1 95.1648 79.5822 -40.259
889 1 94.0286 76.1589 -38.6999
890 1 90.2797 76.6329 -38.4538
891 1 89.9247 78.3391 -42.051
892 1 87.7207 76.5809 -44.586
893 1 89.7678 77.717 -47.6102
894 1 92.601 75.4089 -48.6913
