LAMMPS data file via write_data, version 22 Jul 2025, timestep = 1000000, units = real

596 atoms
596 atom types
2256 bonds
2126 bond types

46.419 149.578 xlo xhi
52.012 147.39 ylo yhi
-71.479 50.067 zlo zhi

Masses

1 110
2 110
3 110
4 110
5 110
6 110
7 110
8 110
9 110
10 110
11 110
12 110
13 110
14 110
15 110
16 110
17 110
18 110
19 110
20 110
21 110
22 110
23 110
24 110
25 110
26 110
27 110
28 110
29 110
30 110
31 110
32 110
33 110
34 110
35 110
36 110
37 110
38 110
39 110
40 110
41 110
42 110
43 110
44 110
45 110
46 110
47 110
48 110
49 110
50 110
51 110
52 110
53 110
54 110
55 110
56 110
57 110
58 110
59 110
60 110
61 110
62 110
63 110
64 110
65 110
66 110
67 110
68 110
69 110
70 110
71 110
72 110
73 110
74 110
75 110
76 110
77 110
78 110
79 110
80 110
81 110
82 110
83 110
84 110
85 110
86 110
87 110
88 110
89 110
90 110
91 110
92 110
93 110
94 110
95 110
96 110
97 110
98 110
99 110
100 110
101 110
102 110
103 110
104 110
105 110
106 110
107 110
108 110
109 110
110 110
111 110
112 110
113 110
114 110
115 110
116 110
117 110
118 110
119 110
120 110
121 110
122 110
123 110
124 110
125 110
126 110
127 110
128 110
129 110
130 110
131 110
132 110
133 110
134 110
135 110
136 110
137 110
138 110
139 110
140 110
141 110
142 110
143 110
144 110
145 110
146 110
147 110
148 110
149 110
150 110
151 110
152 110
153 110
154 110
155 110
156 110
157 110
158 110
159 110
160 110
161 110
162 110
163 110
164 110
165 110
166 110
167 110
168 110
169 110
170 110
171 110
172 110
173 110
174 110
175 110
176 110
177 110
178 110
179 110
180 110
181 110
182 110
183 110
184 110
185 110
186 110
187 110
188 110
189 110
190 110
191 110
192 110
193 110
194 110
195 110
196 110
197 110
198 110
199 110
200 110
201 110
202 110
203 110
204 110
205 110
206 110
207 110
208 110
209 110
210 110
211 110
212 110
213 110
214 110
215 110
216 110
217 110
218 110
219 110
220 110
221 110
222 110
223 110
224 110
225 110
226 110
227 110
228 110
229 110
230 110
231 110
232 110
233 110
234 110
235 110
236 110
237 110
238 110
239 110
240 110
241 110
242 110
243 110
244 110
245 110
246 110
247 110
248 110
249 110
250 110
251 110
252 110
253 110
254 110
255 110
256 110
257 110
258 110
259 110
260 110
261 110
262 110
263 110
264 110
265 110
266 110
267 110
268 110
269 110
270 110
271 110
272 110
273 110
274 110
275 110
276 110
277 110
278 110
279 110
280 110
281 110
282 110
283 110
284 110
285 110
286 110
287 110
288 110
289 110
290 110
291 110
292 110
293 110
294 110
295 110
296 110
297 110
298 110
299 110
300 110
301 110
302 110
303 110
304 110
305 110
306 110
307 110
308 110
309 110
310 110
311 110
312 110
313 110
314 110
315 110
316 110
317 110
318 110
319 110
320 110
321 110
322 110
323 110
324 110
325 110
326 110
327 110
328 110
329 110
330 110
331 110
332 110
333 110
334 110
335 110
336 110
337 110
338 110
339 110
340 110
341 110
342 110
343 110
344 110
345 110
346 110
347 110
348 110
349 110
350 110
351 110
352 110
353 110
354 110
355 110
356 110
357 110
358 110
359 110
360 110
361 110
362 110
363 110
364 110
365 110
366 110
367 110
368 110
369 110
370 110
371 110
372 110
373 110
374 110
375 110
376 110
377 110
378 110
379 110
380 110
381 110
382 110
383 110
384 110
385 110
386 110
387 110
388 110
389 110
390 110
391 110
392 110
393 110
394 110
395 110
396 110
397 110
398 110
399 110
400 110
401 110
402 110
403 110
404 110
405 110
406 110
407 110
408 110
409 110
410 110
411 110
412 110
413 110
414 110
415 110
416 110
417 110
418 110
419 110
420 110
421 110
422 110
423 110
424 110
425 110
426 110
427 110
428 110
429 110
430 110
431 110
432 110
433 110
434 110
435 110
436 110
437 110
438 110
439 110
440 110
441 110
442 110
443 110
444 110
445 110
446 110
447 110
448 110
449 110
450 110
451 110
452 110
453 110
454 110
455 110
456 110
457 110
458 110
459 110
460 110
461 110
462 110
463 110
464 110
465 110
466 110
467 110
468 110
469 110
470 110
471 110
472 110
473 110
474 110
475 110
476 110
477 110
478 110
479 110
480 110
481 110
482 110
483 110
484 110
485 110
486 110
487 110
488 110
489 110
490 110
491 110
492 110
493 110
494 110
495 110
496 110
497 110
498 110
499 110
500 110
501 110
502 110
503 110
504 110
505 110
506 110
507 110
508 110
509 110
510 110
511 110
512 110
513 110
514 110
515 110
516 110
517 110
518 110
519 110
520 110
521 110
522 110
523 110
524 110
525 110
526 110
527 110
528 110
529 110
530 110
531 110
532 110
533 110
534 110
535 110
536 110
537 110
538 110
539 110
540 110
541 110
542 110
543 110
544 110
545 110
546 110
547 110
548 110
549 110
550 110
551 110
552 110
553 110
554 110
555 110
556 110
557 110
558 110
559 110
560 110
561 110
562 110
563 110
564 110
565 110
566 110
567 110
568 110
569 110
570 110
571 110
572 110
573 110
574 110
575 110
576 110
577 110
578 110
579 110
580 110
581 110
582 110
583 110
584 110
585 110
586 110
587 110
588 110
589 110
590 110
591 110
592 110
593 110
594 110
595 110
596 110

Atoms # bond

579 4 579 49.13409100006176 68.39817874732863 -41.88250661137532 1 0 0
594 4 594 129.62732176610493 63.73069501556238 -40.79256385527927 0 0 0
580 4 580 148.62661721595435 69.59128519547933 -40.882641221248974 0 0 0
585 4 585 138.91052011045355 70.3974541502534 -37.85935876708811 0 0 0
581 4 581 145.9398302955849 68.08950241986308 -43.38966869390375 0 0 0
586 4 586 135.51602787515233 70.18837613373995 -35.90117060436677 0 0 0
582 4 582 144.46890152524472 65.30711310304302 -41.172521820898446 0 0 0
584 4 584 138.55989200850388 67.9739663947873 -40.79289725140293 0 0 0
583 4 583 140.81061621267378 65.307507408579 -42.1420521728786 0 0 0
578 4 578 50.0017872210413 71.14097138110009 -44.07665642322372 1 0 0
576 4 576 50.163822918932475 73.02737618557023 -38.886772011439156 1 0 0
577 4 577 48.412104575630664 74.14405553397518 -42.20330048003542 1 0 0
132 1 132 87.89548096946578 119.82931976502202 -38.28883615897439 0 0 0
131 1 131 86.96281429102562 123.08692457253122 -36.71400233351421 0 0 0
135 1 135 79.95086327712988 116.52086884404784 -35.91063436712463 0 0 0
593 4 593 126.57326794199575 65.55858478700945 -39.25173921850854 0 0 0
588 4 588 129.39109472325796 69.99227100234043 -37.90590588041451 0 0 0
589 4 589 127.23909071916037 70.92852223031899 -34.94539798816419 0 0 0
595 4 595 131.76920972243053 66.8717624096287 -40.27798503846304 0 0 0
592 4 592 124.16085873826665 63.26594576735416 -36.93303960157163 0 0 0
558 4 558 126.79684609752329 68.01252739825703 -25.863879839653936 0 0 0
559 4 559 129.91004362196136 68.65833560383263 -24.17093894785869 0 0 0
560 4 560 131.80523416466337 65.46168472853148 -25.11334640987402 0 0 0
591 4 591 124.65492611438961 65.35613377969159 -33.838669185140084 0 0 0
557 4 557 126.40630542155233 69.3365729814406 -29.502442544180404 0 0 0
590 4 590 123.94992231081059 68.92366770634703 -35.324376017074435 0 0 0
561 4 561 131.8120560234184 66.16965472621288 -28.972180356389764 0 0 0
596 4 596 133.194185024349 67.62031233429968 -36.84363490513648 0 0 0
562 4 562 132.81529703464506 69.80075666453483 -28.105577490908356 0 0 0
587 4 587 132.45263564225908 68.07336914754816 -36.41900897312096 0 0 0
563 4 563 135.7099261108325 68.78259712718997 -25.877728877948627 0 0 0
568 4 568 141.57322849249323 67.98800863918038 -31.844104978570023 0 0 0
564 4 564 136.827541214616 66.18112417095192 -28.623982544268962 0 0 0
567 4 567 141.30824216221203 69.10212546881048 -28.309009232029844 0 0 0
565 4 565 136.50641352251824 69.26402524267168 -31.082500411081035 0 0 0
571 4 571 147.02535004109882 69.81700403101404 -32.206567166157676 0 0 0
575 4 575 48.311228762145035 70.9813255830943 -36.27074595246248 1 0 0
574 4 574 47.5674406393157 73.07268604983855 -33.147913281104 1 0 0
490 4 490 112.6610685765402 84.06187653990499 -21.72107516348591 0 0 0
487 4 487 113.1543388950342 79.49011904582315 -24.281366432634652 0 0 0
300 3 300 113.55545195140382 88.23418789474722 -20.53433166976318 0 0 0
299 3 299 110.4939246766732 89.15133961041757 -22.588046192920213 0 0 0
486 4 486 115.43625562295834 81.60781583253934 -26.614106848063606 0 0 0
488 4 488 116.004962562729 79.27346075485038 -21.648107282742664 0 0 0
554 4 554 127.39125786426926 72.23399339132521 -24.857276292691946 0 0 0
556 4 556 123.92230694026223 72.33464637350633 -29.004764340765963 0 0 0
555 4 555 123.42807172724521 72.75633791102804 -25.27682048360747 0 0 0
489 4 489 116.42153885326609 83.06363128883298 -22.125226320126224 0 0 0
485 4 485 117.79340113244972 78.69447890757074 -27.125783262611268 0 0 0
483 4 483 118.57557123288065 82.5518424764128 -31.89627387518047 0 0 0
484 4 484 119.06809309834892 78.84738702363245 -30.618178364592673 0 0 0
480 4 480 123.57753642581469 82.73787530269833 -30.875309997787355 0 0 0
482 4 482 118.84733791003877 84.08417029960601 -28.648868167049564 0 0 0
481 4 481 121.7367899521928 82.18610231594018 -27.504568589149397 0 0 0
552 4 552 126.06525601020138 77.56278600787796 -26.04276828769299 0 0 0
553 4 553 127.81001791284385 74.71612413029251 -27.805634396796478 0 0 0
551 4 551 127.69565383353617 76.7729824142528 -22.719134951730975 0 0 0
477 4 477 127.16072553091047 84.62001281778443 -28.600623682607868 0 0 0
548 4 548 129.33645623595055 81.78185938802888 -23.391404457582276 0 0 0
478 4 478 124.30257237694963 86.77097628886014 -26.97605717187455 0 0 0
479 4 479 122.94252095389652 86.52514075657125 -30.529523350397035 0 0 0
549 4 549 130.64759206432856 79.59447615875943 -26.44492470455389 0 0 0
550 4 550 131.0565076791908 76.80526769317305 -24.382743857064057 0 0 0
474 4 474 130.43256362922875 88.0142806160918 -26.89452610768779 0 0 0
476 4 476 127.62306586357533 87.2781105537539 -31.493354763978672 0 0 0
547 4 547 132.4411621569311 81.03181548883246 -21.376475914387004 0 0 0
473 4 473 132.32522910795376 87.81655476435432 -30.183825258554503 0 0 0
475 4 475 127.84167272770217 90.02896257709067 -28.829775067004043 0 0 0
572 4 572 146.20560836871894 71.17272230052073 -35.692896782021656 0 0 0
569 4 569 142.07195093010967 71.50460918653837 -32.75020974380526 0 0 0
544 4 544 133.08284244092846 85.72153009048225 -21.802996658729374 0 0 0
566 4 566 138.4444110911326 71.64204722792167 -28.93846402595105 0 0 0
472 4 472 133.38675741152784 84.32325507376311 -31.556139560223787 0 0 0
570 4 570 144.96360558564146 72.39859065800599 -30.515311397382504 0 0 0
573 4 573 147.53662477028251 74.5371964330975 -34.86196050187342 0 0 0
462 4 462 141.9569068731378 73.06571477408873 -23.067825494183484 0 0 0
465 4 465 145.29828952451254 75.42784584009942 -26.411157865258232 0 0 0
470 4 470 139.34874656646457 81.49116954629964 -32.22608141963208 0 0 0
545 4 545 133.90457904066272 84.47519939802032 -25.340699435913336 0 0 0
546 4 546 135.3292538006049 81.36371002101248 -23.83335980307151 0 0 0
471 4 471 136.22939858239891 82.14676891302337 -30.140659652397076 0 0 0
469 4 469 141.1628796723586 84.8070594103563 -31.425816542905547 0 0 0
467 4 467 144.2833235631127 80.28436766901268 -30.912027084053552 0 0 0
463 4 463 140.77424882913783 76.64762431546183 -23.856377451552515 0 0 0
542 4 542 138.15271397283945 87.2679611801629 -23.637949053797406 0 0 0
466 4 466 142.8956043773134 77.1547014768374 -28.93907488937412 0 0 0
468 4 468 143.0122587680753 83.26101213981491 -28.660648508340184 0 0 0
464 4 464 144.1814330065743 77.93445218043318 -23.88481524409086 0 0 0
543 4 543 136.68707538050919 84.90903411602892 -20.863878380441687 0 0 0
461 4 461 144.54794071380297 74.5197117342445 -20.64012903348025 0 0 0
541 4 541 135.62713332269092 89.87355180244317 -22.76645201528926 0 0 0
142 1 142 74.3435728812941 103.30384006783859 -23.79535143703706 0 0 0
141 1 141 77.8127231168183 102.52441521768245 -25.352173291941988 0 0 0
143 1 143 75.68285173932051 105.05807331601207 -20.97594943802655 0 0 0
140 1 140 80.60741798592913 105.15302496078682 -24.343696746006408 0 0 0
139 1 139 80.83195586950782 108.39743587331246 -26.674387707883064 0 0 0
113 1 113 86.09590843708922 98.2728280517647 -22.476907825803092 0 0 0
116 1 116 88.71740915623053 102.29450531079243 -22.438089911643086 0 0 0
114 1 114 83.6951785476318 100.83331107202275 -23.971745980754193 0 0 0
117 1 117 87.9128615609424 102.61826288583816 -26.12879902579427 0 0 0
115 1 115 85.04599700691476 103.30851355676681 -21.498513820475218 0 0 0
118 1 118 85.90619849964709 105.91601438376996 -25.274201530814633 0 0 0
120 1 120 91.26477991537308 107.0437574781284 -27.06313359142855 0 0 0
119 1 119 89.22957768145233 107.24043551633874 -23.806915395969018 0 0 0
121 1 121 88.27209592488809 108.0898262087576 -29.087584668399877 0 0 0
15 1 15 95.7959339877947 106.52437739101117 -20.895722942244902 0 0 0
14 1 14 99.24188831153946 107.5261717913756 -19.588391614101134 0 0 0
520 4 520 129.51360463942467 105.6295023319759 -19.04954420337545 0 0 0
530 4 530 133.04061175650358 104.61543738841651 -24.13704241410053 0 0 0
533 4 533 132.72320923948035 99.77205542280502 -22.097632438966027 0 0 0
529 4 529 132.6542726012268 107.92809315767153 -22.296423392235567 0 0 0
538 4 538 138.50556643893646 93.7639677334485 -24.683857692562853 0 0 0
537 4 537 134.6911457937734 94.22269037207128 -24.757023518374908 0 0 0
534 4 534 135.71913720789468 99.32749906495106 -24.594720899369257 0 0 0
531 4 531 136.41004528954164 103.81409494804055 -22.33445693160877 0 0 0
539 4 539 140.27158270623812 92.51734696432378 -21.65305634489345 0 0 0
535 4 535 137.54979436383115 97.7108186825977 -21.574676593944815 0 0 0
536 4 536 134.73348156218447 94.99313883817153 -21.10759049146469 0 0 0
540 4 540 137.35897897882472 91.15690626415893 -19.69027345992548 0 0 0
532 4 532 135.04301446328435 101.38298329617888 -19.73693025343231 0 0 0
145 1 145 73.55900770229212 109.3574348272146 -23.629328864795962 0 0 0
146 1 146 73.41548909602692 112.9327171171724 -22.213589799015033 0 0 0
147 1 147 73.06397008712712 116.4359226804305 -23.54163083175229 0 0 0
148 1 148 74.66422553777424 115.81724020972118 -26.920823359733184 0 0 0
149 1 149 78.3604132061517 114.4872583315728 -27.833685293163203 0 0 0
136 1 136 79.61576619571328 115.01286705709119 -32.5763950380515 0 0 0
134 1 134 83.46157308708712 115.09608640819057 -36.7570287825728 0 0 0
133 1 133 86.05443474231754 117.83109082952292 -35.768488799137685 0 0 0
138 1 138 82.38838947340403 109.59953790280441 -29.831305629631586 0 0 0
124 1 124 91.23912238322448 111.49809390759965 -30.95148214263916 0 0 0
122 1 122 87.29880640312203 111.1197418101333 -26.97224482340031 0 0 0
123 1 123 91.28217276963426 111.76870163466249 -27.251413359254006 0 0 0
18 1 18 95.72919945126208 111.4304834072688 -22.66282061767735 0 0 0
129 1 129 91.55095686778198 120.07075248528464 -34.432889797143034 0 0 0
130 1 130 88.47530554417048 122.12197557178598 -33.17179688512653 0 0 0
137 1 137 82.03700305643049 113.58135753492321 -30.295863858963987 0 0 0
125 1 125 88.24326744896804 113.86494602550812 -31.05892380379358 0 0 0
19 1 19 92.5074992988692 113.0974205047481 -21.902136664621835 0 0 0
126 1 126 89.98607624719905 116.38280605631992 -28.925529809014982 0 0 0
20 1 20 92.25946613232321 116.91826917813837 -20.668386735602944 0 0 0
128 1 128 91.45039109914575 116.34035975737619 -33.974581041038626 0 0 0
127 1 127 93.45153988551107 116.15127152328266 -30.684289275175427 0 0 0
17 1 17 96.8076687629183 111.58861310735094 -19.012598888991633 0 0 0
528 4 528 135.34110853292955 109.9617000690239 -23.95492640062784 0 0 0
527 4 527 136.5972938519483 113.02360561829717 -22.42367782434191 0 0 0
345 3 345 128.3016733836228 69.68446523103309 -10.271279272968323 0 0 0
346 3 346 126.7759051044343 69.59899134011611 -6.746082612603933 0 0 0
344 3 344 131.60592417509906 67.8235002979677 -8.932294906980298 0 0 0
496 4 496 120.12024122165356 71.08382273296252 -16.327089843164497 0 0 0
457 4 457 134.38648635311802 68.84530710544695 -16.900870070496403 0 0 0
343 3 343 134.99002603332153 69.11104852481282 -10.349817164061932 0 0 0
197 2 197 92.65984132353904 88.48506955859321 -7.003444121060896 0 0 0
198 2 198 90.71688080696582 89.40166867646433 -3.9024147981882855 0 0 0
491 4 491 111.6833500790821 81.31711177802639 -19.240623316311417 0 0 0
493 4 493 113.22516399148155 76.51947737587186 -18.474433014503187 0 0 0
309 3 309 112.77124150401673 83.14309086079344 -5.839021476021741 0 0 0
310 3 310 110.90299684104319 86.2688881646406 -7.132459843086876 0 0 0
308 3 308 112.80594411796292 79.60026919028306 -6.727218613119274 0 0 0
305 3 305 113.32935603408795 82.49645799252899 -10.610265105244647 0 0 0
492 4 492 113.63246498093024 79.84246050536044 -16.21554373811369 0 0 0
189 2 189 102.97813789495135 89.21565871162231 -7.971389431507104 0 0 0
301 3 301 113.26582575123028 86.29090524083131 -17.296000297169133 0 0 0
306 3 306 115.08683735243059 79.42544659188778 -11.903430196826653 0 0 0
302 3 302 113.41427426016476 87.64098359749799 -13.79623944839392 0 0 0
313 3 313 109.8766203958389 88.21499867956612 -2.013646085477175 0 0 0
190 2 190 99.43126969299568 89.88518333525664 -7.265904694371706 0 0 0
187 2 187 102.22060753445808 89.55656281852414 -2.6635704525628903 0 0 0
311 3 311 112.458536484458 89.65112429611793 -6.420233584157386 0 0 0
307 3 307 116.20125841262997 79.05775471861539 -8.175052777919463 0 0 0
445 3 445 112.92267869433326 72.95206919444364 -1.0060891860270482 0 0 0
502 4 502 123.90704823949228 80.16445810259707 -19.485601414602154 0 0 0
506 4 506 124.21795916500459 86.52463685156958 -19.219097750445492 0 0 0
494 4 494 115.56032174562964 73.63968096133789 -17.41135143738516 0 0 0
499 4 499 120.89146675586586 75.94728249179522 -18.964573666265522 0 0 0
456 4 456 131.5165535363416 71.11258178695945 -16.420383377894645 0 0 0
498 4 498 124.26561276024239 74.17288046299079 -18.848991034073332 0 0 0
303 3 303 116.57561968908978 87.78896433704904 -11.80790058714341 0 0 0
347 3 347 123.34277790853896 71.39863674242511 -6.550957311285997 0 0 0
497 4 497 123.90502667188053 72.12876461488642 -15.842907152616652 0 0 0
495 4 495 117.77753695345298 73.29066393062728 -14.271537452747241 0 0 0
503 4 503 121.43145245994393 82.50432926821665 -17.57152392146828 0 0 0
505 4 505 126.64502367631076 83.95762140979029 -17.51151843066032 0 0 0
501 4 501 124.8680686532808 78.05673769768477 -16.210965760293625 0 0 0
304 3 304 116.66597770529359 84.63732620281688 -9.666869962706325 0 0 0
500 4 500 121.34202052156766 76.98737613168025 -15.559474716938597 0 0 0
507 4 507 123.61817663384271 88.01900083788719 -15.782512212235043 0 0 0
508 4 508 127.35376615720335 88.24482967583522 -15.125665729336031 0 0 0
504 4 504 124.18450381273463 83.06687716956863 -14.985404135318674 0 0 0
348 3 348 122.51391681858591 74.18645001666715 -9.249140138569054 0 0 0
349 3 349 122.63021221362264 76.71760342877913 -6.309344565068825 0 0 0
351 3 351 126.71946158253594 76.68241607743494 -9.887806695350383 0 0 0
350 3 350 126.30631859286659 75.98173238033658 -6.158518610550755 0 0 0
352 3 352 125.06343662341733 79.95638553622624 -9.513833082921176 0 0 0
353 3 353 127.24770130247347 80.88027824360208 -6.330119005832647 0 0 0
355 3 355 129.60015808526634 82.10573186170112 -10.785402041500669 0 0 0
356 3 356 128.340059362654 84.95175906002135 -8.71739856612791 0 0 0
398 3 398 121.66940708534696 86.65916010353216 -4.383910347502974 0 0 0
354 3 354 130.4298247627467 79.69146250146683 -7.931570953786867 0 0 0
357 3 357 131.3097745059623 85.2454173002048 -6.445535964127919 0 0 0
359 3 359 131.2055895298637 88.05193101367716 -11.256484509738385 0 0 0
402 3 402 121.38596006535896 80.84977801315415 -2.7147656700625666 0 0 0
339 3 339 132.66369742140435 71.43898250968093 -2.99242077272708 0 0 0
448 4 448 133.17384265119048 78.94760991685745 -6.2531821715512494 0 0 0
509 4 509 127.9217495041783 89.98776976974634 -18.254747262257084 0 0 0
446 3 446 114.44983366753824 69.540806519728 -0.9146475088451881 0 0 0
342 3 342 135.72261714829696 70.29198825205403 -6.633415290385447 0 0 0
455 4 455 132.37082228319656 71.40335711632058 -12.707193070013078 0 0 0
340 3 340 132.46892748744384 74.63848839640558 -5.113323155814218 0 0 0
458 4 458 137.18718850465712 70.82192543874424 -18.554967662716752 0 0 0
460 4 460 141.8099030638185 76.09908968454322 -18.73888147812075 0 0 0
454 4 454 136.2362977287757 72.03592325549845 -13.769587191324094 0 0 0
459 4 459 140.42018713820235 72.6650913196638 -17.813917584660786 0 0 0
341 3 341 136.11499913433568 74.26324483178662 -6.163201008333172 0 0 0
453 4 453 135.26282783598995 74.69704099800649 -16.321746983625893 0 0 0
449 4 449 136.70296706589104 80.06690082451875 -7.249514217012448 0 0 0
452 4 452 138.44909136191362 77.05475409738843 -16.129492863164042 0 0 0
451 4 451 139.77716254814453 76.78399108681859 -12.526609858507703 0 0 0
358 3 358 133.59407675496047 85.40629206980279 -9.705507963519246 0 0 0
450 4 450 136.9217799417065 78.47861907118147 -10.738485609604114 0 0 0
361 3 361 135.49678960733706 89.77828369112046 -8.777615248649198 0 0 0
110 1 110 78.91381638225498 101.2651461229565 -18.506709213195133 0 0 0
38 1 38 75.34414524127637 104.7004901818425 -5.904515061733918 0 0 0
109 1 109 78.02191364961455 102.19497387568018 -14.902555474411294 0 0 0
48 1 48 80.58525336620596 92.78164825611233 -5.11539297731178 0 0 0
37 1 37 73.41384446979828 106.99015229413483 -8.289197215298962 0 0 0
41 1 41 76.96866230148242 100.71769824900623 -2.7956024358313143 0 0 0
39 1 39 73.9376040536872 105.0397986418428 -2.3953548542808867 0 0 0
34 1 34 78.38117214719809 108.73899833323217 -5.940421712581443 0 0 0
108 1 108 80.70522819844038 100.59213369343834 -12.788202090923871 0 0 0
112 1 112 85.3493623591228 98.9539429474974 -18.82601814611406 0 0 0
195 2 195 94.25303499599455 90.26798802815969 -13.180930496912408 0 0 0
111 1 111 81.66240922312228 98.50163039831367 -18.090998453559862 0 0 0
196 2 196 91.762536419996 90.75611219171896 -10.098585817225041 0 0 0
49 1 49 82.49449096970064 93.62929678352005 -8.409544781823007 0 0 0
194 2 194 96.86114673708613 92.26879328325805 -14.976328197658871 0 0 0
11 1 11 94.17793026678905 101.59803145273793 -17.506737407328416 0 0 0
10 1 10 92.71000769130083 98.15761800916984 -17.552764575700664 0 0 0
9 1 9 91.04051084973038 97.45943404192653 -14.218449671239977 0 0 0
50 1 50 86.198590082957 95.01036195802865 -8.116014670506503 0 0 0
51 1 51 84.91257923428557 98.47637064548307 -9.01766563450778 0 0 0
52 1 52 82.65266799132387 98.63188183325313 -5.967772618985793 0 0 0
54 1 54 87.94695480444938 100.23713020672645 -5.101475790910435 0 0 0
107 1 107 83.32120807865074 101.59722258479695 -15.369706524245112 0 0 0
55 1 55 85.25573163221043 102.89126407153692 -4.9965664259398155 0 0 0
104 1 104 85.29247858846622 103.57065904888553 -11.051889530931096 0 0 0
103 1 103 87.05845327437319 105.78936975389487 -13.548534809286219 0 0 0
8 1 8 94.18374945922962 95.85381622927231 -12.77828843423369 0 0 0
6 1 6 94.38627406072328 101.92093215906974 -12.645692848076242 0 0 0
106 1 106 82.15267600398336 105.20112936370421 -15.410636960328466 0 0 0
105 1 105 81.93482914952199 105.25946955733174 -11.5295972300886 0 0 0
100 1 100 90.51644086563138 107.24709138191423 -9.894287748135444 0 0 0
101 1 101 86.79798406253714 107.6865842013428 -8.49044323916517 0 0 0
7 1 7 96.13135838521355 98.838705108382 -14.334441521502185 0 0 0
202 2 202 92.7633368594022 95.47020473451067 -4.016245791069843 0 0 0
205 2 205 96.78272174097094 98.36148553315097 -3.4736338047218 0 0 0
58 1 58 89.0608279498946 105.80112421816796 -2.7856851588955274 0 0 0
53 1 53 85.56098577551887 97.77141745888164 -3.502864410368356 0 0 0
206 2 206 94.54672946549897 101.27643608247347 -2.4156583988887177 0 0 0
201 2 201 94.61904680016475 92.45829824416607 -2.5055871564822043 0 0 0
199 2 199 89.1441071958391 92.48441273959317 -2.4843964221482695 0 0 0
12 1 12 97.63756671202187 103.05758992076348 -17.61805759911099 0 0 0
5 1 5 97.29431919988154 103.34824955642834 -10.717004926124856 0 0 0
209 2 209 98.44275658752252 104.69190117833175 -2.906984009714652 0 0 0
193 2 193 98.84519021308704 91.66632836126492 -11.617629581861879 0 0 0
13 1 13 98.4387503106762 106.43969528681434 -15.944956073814488 0 0 0
188 2 188 104.33231871702556 91.41575483437222 -5.240939282970989 0 0 0
312 3 312 109.36921558908114 90.79630423305382 -4.731022538822215 0 0 0
191 2 191 99.95036076557903 93.60501491769118 -6.6162393879693715 0 0 0
192 2 192 101.72239633304278 93.89584661898022 -10.227644477832415 0 0 0
3 1 3 101.2147871907844 100.22044683483779 -7.742842557444701 0 0 0
2 1 2 103.26634684067045 96.95800095548665 -7.382479280145702 0 0 0
4 1 4 100.229038435929 100.90460996114814 -11.288075318829604 0 0 0
1 1 1 102.15700700696914 93.55125348653186 -6.289490847871092 0 0 0
517 4 517 127.17213561839947 101.89175621839645 -19.02202243410878 0 0 0
513 4 513 127.39022051121995 96.15974832133044 -18.89133017779707 0 0 0
521 4 521 126.5737614142145 107.90458650564337 -18.417962864671694 0 0 0
360 3 360 131.74815384394617 90.13416208537937 -7.991014155397532 0 0 0
510 4 510 124.62545805602694 92.24163305281185 -17.721238510648224 0 0 0
395 3 395 124.58595089459924 90.92150604011921 -4.54733625248216 0 0 0
394 3 394 121.5288648097858 92.91186436519357 -5.229716445231789 0 0 0
514 4 514 125.10980483548236 97.86505954221474 -16.23185184808503 0 0 0
518 4 518 126.6601913228016 103.45625408834738 -15.52128853982602 0 0 0
512 4 512 129.22799148206613 94.3100905965642 -16.071750592346966 0 0 0
511 4 511 125.81981003194487 93.4902073773526 -14.328962731843212 0 0 0
515 4 515 128.09726440625968 99.20193269204456 -14.241359166938148 0 0 0
391 3 391 125.61961777677583 97.27942915030927 -6.976862106660833 0 0 0
387 3 387 129.90982001838344 98.87552625987067 -6.168753605277212 0 0 0
516 4 516 130.13927815933116 100.07748818807663 -17.409903705975005 0 0 0
386 3 386 128.99701588403747 102.50796858502483 -5.837915619126067 0 0 0
390 3 390 124.49747124718556 100.31333007379963 -4.985200026437316 0 0 0
392 3 392 126.07468721344216 95.52375245097284 -3.570555720603629 0 0 0
393 3 393 122.48312666764063 95.32840924400236 -2.568980326124717 0 0 0
385 3 385 131.85963007160748 102.83776894958028 -3.2435669771829603 0 0 0
388 3 388 129.87320782476837 98.1558676070949 -2.3632709631432185 0 0 0
519 4 519 130.25005144179798 104.88769024288828 -15.43701566509754 0 0 0
383 3 383 132.78269498330013 103.80353784493441 -8.454563687544981 0 0 0
363 3 363 132.93268743734833 94.33424267098418 -10.917097476895671 0 0 0
382 3 382 133.4831909961793 106.89652421614566 -6.2138648393526195 0 0 0
362 3 362 135.12091865405642 91.29655449139777 -12.260414158485249 0 0 0
365 3 365 138.43730228521764 94.69497735103292 -11.050141739166701 0 0 0
373 3 373 142.7018594416796 104.71065904534241 -16.185600922904108 0 0 0
374 3 374 140.86832668438979 108.18987449888371 -15.502295967942862 0 0 0
369 3 369 140.58256537662973 99.91798517626155 -13.4422959909291 0 0 0
366 3 366 136.4013532560805 96.85493018823054 -13.393971786990825 0 0 0
370 3 370 138.29134436666618 103.08746376052109 -13.709108846377678 0 0 0
364 3 364 135.84711437481064 94.90136381338482 -8.318563727116242 0 0 0
372 3 372 143.8078128407327 103.92431786312308 -12.494016195473097 0 0 0
367 3 367 135.89367774646095 99.35756972242439 -10.381637182576037 0 0 0
371 3 371 140.33498613906292 104.59743619382087 -10.8263215208705 0 0 0
368 3 368 139.53616448610674 99.6931227163746 -9.754235184360022 0 0 0
380 3 380 139.0069286800006 107.9235759618243 -7.3708582594417145 0 0 0
384 3 384 134.27562443455065 101.39622029816714 -5.753558235587379 0 0 0
381 3 381 136.79714021827593 105.97226142370498 -4.935232974156032 0 0 0
144 1 144 72.90608404289695 107.84949631432137 -20.257845972791316 0 0 0
36 1 36 72.77917304914061 110.03644347495508 -6.1242278117429745 0 0 0
35 1 35 75.48964279730517 109.64751709511528 -3.4066785854344657 0 0 0
33 1 33 77.14257788502002 111.79848429224923 -7.996435115075962 0 0 0
32 1 32 77.40278695520217 114.12957959654247 -5.0087216991645 0 0 0
16 1 16 94.21927306157366 108.74355190536414 -18.24251357995537 0 0 0
102 1 102 85.46604603766342 108.93178625523173 -11.896490599597048 0 0 0
29 1 29 80.61859532576652 116.54203889695259 -7.753970375115326 0 0 0
23 1 23 87.13324829104636 116.76877459875226 -18.245628668736394 0 0 0
31 1 31 80.86271257754017 112.83273296101927 -3.9502690244065852 0 0 0
21 1 21 92.77928370405492 117.33935352635254 -16.932461739971455 0 0 0
22 1 22 89.6567704908424 119.38591240007244 -16.649776997917595 0 0 0
99 1 99 90.51456919449586 110.36380214733798 -12.219257944975567 0 0 0
96 1 96 94.58954452346794 111.71459819894108 -9.522388421199388 0 0 0
97 1 97 91.7909449146782 111.35355339992722 -6.989286621931439 0 0 0
24 1 24 86.34803348177518 114.95673999705292 -14.94311689357588 0 0 0
98 1 98 89.14113142496689 112.77820632944386 -9.590156157566872 0 0 0
30 1 30 81.96132520032516 113.00921700066718 -7.674790036616561 0 0 0
25 1 25 83.64442296786108 115.8708794936928 -12.432614922767295 0 0 0
27 1 27 85.79856454071383 117.10252113599076 -5.821413767606216 0 0 0
26 1 26 84.66542858530043 117.93217065198087 -9.240122165363983 0 0 0
28 1 28 82.23840409882862 117.98706758288677 -4.56941884528827 0 0 0
90 1 90 92.12861498718955 119.67468897942742 -5.111719490512664 0 0 0
94 1 94 93.36494647967955 115.49827596966371 -6.1621387110359285 0 0 0
95 1 95 93.41804889880636 115.28580075783958 -10.015963879476963 0 0 0
87 1 87 94.19624283529198 124.23917558332626 -3.963455673150388 0 0 0
89 1 89 94.91966469235938 119.10070730534606 -2.5737336643790703 0 0 0
91 1 91 94.83402755556111 120.03664876464961 -7.990556083513368 0 0 0
93 1 93 97.27047825290498 115.4348991812189 -5.639014186983617 0 0 0
88 1 88 97.20818501802025 121.74160765448762 -4.039986972397696 0 0 0
92 1 92 98.28339701012155 118.4340296436477 -7.769003150744911 0 0 0
522 4 522 127.1645812815816 109.21764005165126 -14.88401204006914 0 0 0
523 4 523 130.77611881026098 110.39472837648246 -15.186522351086628 0 0 0
524 4 524 130.9279087774892 113.34815246908641 -18.010182870732283 0 0 0
526 4 526 136.16841458101158 111.90666902324482 -18.872976698369808 0 0 0
375 3 375 142.61068617855943 110.84433882885945 -13.669994360842349 0 0 0
377 3 377 136.9190574696764 112.32954487762161 -11.656499865850574 0 0 0
376 3 376 139.6932149555239 113.56958235661074 -14.123079327187067 0 0 0
525 4 525 134.44975718494376 114.37460077071508 -16.720081859648207 0 0 0
378 3 378 136.66974015452686 114.29635171800003 -8.485355106326795 0 0 0
379 3 379 137.28498868484112 111.03564670587319 -6.637918515018194 0 0 0
447 3 447 114.86995074460896 67.78192325258733 2.619216731121769 0 0 0
263 2 263 90.3338769496406 83.04773723114668 11.007652084892984 0 0 0
260 2 260 92.10866369218375 83.93881884180065 5.809326420810365 0 0 0
262 2 262 87.33321364973587 84.5955157661866 9.064678231032286 0 0 0
261 2 261 89.58518738004221 86.72127596449769 6.831976532398039 0 0 0
256 2 256 93.46900741114321 88.15480534446209 5.747021054498164 0 0 0
257 2 257 95.67003662289659 87.43772183373223 2.746590792374953 0 0 0
293 2 293 90.35903963716382 86.0959894543474 9.1213792161738 0 0 0
264 2 264 91.5562629310326 86.75773446663625 11.73699597762853 0 0 0
259 2 259 95.71343088058575 83.6981868385329 7.2978571873398765 0 0 0
294 2 294 91.24847913893255 82.59062457015582 7.5341443496722444 0 0 0
265 2 265 88.19123029258975 88.0001119692988 12.93287918934601 0 0 0
296 2 296 86.44615597130415 80.3707593552874 11.105255798800279 0 0 0
295 2 295 89.80861676557934 79.78637454386403 9.50905504352374 0 0 0
292 2 292 93.04068243393944 88.73891500943061 8.433603518333323 0 0 0
255 2 255 96.57836727748276 89.26093238446235 7.7283980188981545 0 0 0
266 2 266 87.76620180044758 84.89978616936982 15.274125537365219 0 0 0
444 3 444 113.40611214026148 69.65296342667705 1.1377410355745874 0 0 0
314 3 314 113.52187067474354 89.14502893218173 -1.624412647559594 0 0 0
258 2 258 98.15691827703449 85.40960004086416 5.0900427476487895 0 0 0
410 3 410 113.65244637489779 76.20086564501203 -0.19651155448760807 0 0 0
441 3 441 112.1368882427968 72.88345767503034 4.5923586147558435 0 0 0
439 3 439 112.8565092177344 74.35841544965001 9.977442702038855 0 0 0
186 2 186 104.65983113230742 87.62490972354617 -0.6827757889223245 0 0 0
411 3 411 110.13579180234568 76.26712490001822 1.3909021355225564 0 0 0
414 3 414 110.41845509099585 81.46082095308623 1.462400689457969 0 0 0
412 3 412 111.73899746175134 77.27514777272694 4.7585550483596935 0 0 0
415 3 415 108.42131469086974 80.8716381239912 4.88642026868551 0 0 0
437 3 437 111.59109864513523 79.53648369579837 13.116798193041284 0 0 0
416 3 416 110.79392237086418 83.07371989649947 6.8039157797067675 0 0 0
436 3 436 109.92812231354647 83.0520954222733 13.327343452461125 0 0 0
417 3 417 110.59669808831848 85.80733468590776 4.132304564911382 0 0 0
419 3 419 106.297074386395 85.6368638190701 8.040955496932842 0 0 0
418 3 418 106.82892504539366 86.30513500212149 4.261006136775034 0 0 0
420 3 420 109.35960045806812 87.53269098925259 9.617492394727808 0 0 0
413 3 413 113.39824338840366 80.21656047348831 3.2116811752386267 0 0 0
438 3 438 114.29037786928409 77.76882005915787 11.072390029496376 0 0 0
440 3 440 113.54625889177358 71.12418324688397 7.849476498668941 0 0 0
435 3 435 106.19426571191163 82.73331489171858 13.430389492429018 0 0 0
421 3 421 108.79107061736062 90.33832248511273 7.042261746732064 0 0 0
399 3 399 124.42338852787164 85.35440767851289 -2.1533601696390816 0 0 0
397 3 397 120.03815321022536 89.09385051511717 -1.9337966213439113 0 0 0
443 3 443 116.60816298468774 70.12916400195317 3.250430575379368 0 0 0
409 3 409 115.63390184798185 74.32920913848808 2.3818717572394252 0 0 0
401 3 401 119.3971210920796 83.43613692111099 -0.8056095032984979 0 0 0
406 3 406 121.03460006107156 75.1527617881694 -0.2221880015664245 0 0 0
442 3 442 116.01084293543882 73.77657878721404 3.777405720441264 0 0 0
336 3 336 131.05863218373062 75.40580079265735 0.6442482398768186 0 0 0
405 3 405 118.18236459362035 77.51298604417451 0.018502098606064707 0 0 0
403 3 403 123.28089271529457 79.8645478931394 0.4638344133538406 0 0 0
332 3 332 130.29353542560673 80.98226146384586 1.0564648062874282 0 0 0
408 3 408 117.88498268661671 75.58497258927551 5.248989191697263 0 0 0
400 3 400 122.14377465030704 85.29632649401475 1.136248785482947 0 0 0
404 3 404 119.99005579132755 79.82200414666173 2.413726156072409 0 0 0
328 3 328 128.37145674065104 86.53983271170038 2.4746017656549197 0 0 0
407 3 407 121.43856883024411 75.29537839544624 3.699080124214825 0 0 0
331 3 331 129.90981976840646 82.53654249844811 4.405108685525811 0 0 0
327 3 327 130.02549858519652 88.59149751692837 5.244112139997382 0 0 0
335 3 335 130.73849009435176 76.20384757491601 4.591295641233895 0 0 0
329 3 329 131.66946946414504 86.0180020136538 0.7519262814491272 0 0 0
334 3 334 133.28034571408264 78.81339395081339 5.064019067587491 0 0 0
330 3 330 133.028657831957 84.86609501477214 4.071920026767974 0 0 0
333 3 333 134.010942797295 80.05376453645177 1.6946385580222838 0 0 0
337 3 337 134.51527235126582 75.97830023984147 -0.5500764351937235 0 0 0
338 3 338 136.02766082937433 72.62265045912656 -1.3550861969863939 0 0 0
40 1 40 73.66587655804213 101.37861940891582 -1.1771470461851608 0 0 0
42 1 42 78.62168294477218 103.28508071710095 -0.3849365432594755 0 0 0
43 1 43 77.05660121549558 101.49630777128242 2.6970929500851795 0 0 0
44 1 44 77.71555194799603 97.9065032545611 1.4456251029618832 0 0 0
45 1 45 78.32144194670143 94.96403553804419 3.829177564379204 0 0 0
46 1 46 79.11086907977196 93.04737536081448 0.4639057897741276 0 0 0
151 2 151 79.16482302165242 105.57787790347018 2.2281489406664936 0 0 0
150 2 150 76.3221703273514 107.43903784411816 3.863957512450949 0 0 0
56 1 56 84.71906843678018 102.71972217357266 -1.347879096528952 0 0 0
59 1 59 86.63902056815712 107.87368221456889 -0.8653432230027991 0 0 0
47 1 47 82.12961778194736 93.49262170691227 -1.7487556822134185 0 0 0
291 2 291 93.7658046436622 91.43671353301609 11.132205687505884 0 0 0
200 2 200 91.98368602480483 92.25501039822657 0.1957330177763403 0 0 0
159 2 159 83.24453751380985 91.7860586201568 8.21973978820613 0 0 0
203 2 203 92.57739115243054 97.29608554209018 -0.6219545829408911 0 0 0
57 1 57 88.43220358395199 102.64762681520841 -0.5231373702461598 0 0 0
158 2 158 84.95703324996362 93.13918924578732 5.196029588823223 0 0 0
157 2 157 82.26929346435274 95.04896005361 3.6773568621424393 0 0 0
160 2 160 84.64866914286719 94.21119802773384 10.838413516766652 0 0 0
253 2 253 94.2063022347284 93.2447529020675 4.812085953137022 0 0 0
252 2 252 93.89872823354634 93.693004516267 8.649775076848725 0 0 0
155 2 155 85.62139961674029 97.51085681492115 7.297464693254563 0 0 0
249 2 249 94.2101558820433 98.8691238012995 7.759229236028183 0 0 0
156 2 156 81.94532813379132 97.08669955349907 7.083821887359655 0 0 0
161 2 161 84.88064413346508 97.33083434410533 12.90269165981126 0 0 0
154 2 154 85.9127036776133 101.23231375187747 6.3607344719531715 0 0 0
153 2 153 82.59855375844981 102.84737347477478 7.588223555176021 0 0 0
152 2 152 82.06152736806347 105.25727090815292 4.611503683015327 0 0 0
60 1 60 88.42577435268637 106.70136836000096 2.264639743174736 0 0 0
248 2 248 95.30641737083904 98.77523110783099 11.363723184267757 0 0 0
245 2 245 94.8437397633481 103.94619359557124 11.154379256968538 0 0 0
61 1 61 92.01263574827586 107.56785759523076 0.9194815584730246 0 0 0
207 2 207 96.0044987754521 101.89657493831214 0.9730512783737352 0 0 0
204 2 204 96.18687585667891 96.54014257534395 -0.2002308351734374 0 0 0
210 2 210 96.80915403888697 106.27263358871464 0.10289600456491979 0 0 0
162 2 162 87.08354710836703 100.47396888104976 13.402398512805696 0 0 0
246 2 246 97.18570558453352 102.61983387536718 8.274837712964592 0 0 0
250 2 250 97.30070104022533 97.37858121900359 6.045693619436167 0 0 0
254 2 254 97.70749619933208 91.62896130578515 4.937968979695858 0 0 0
251 2 251 97.5327412408241 94.75002942449717 8.979001131881535 0 0 0
244 2 244 97.90001996790326 104.38374525667889 13.403909498344852 0 0 0
290 2 290 91.32037725485112 93.11473536951377 13.553200822343358 0 0 0
184 2 184 106.6673499229492 93.48149342124718 -1.542668527863941 0 0 0
185 2 185 107.80585423095928 89.93741398456757 -0.24337008729480308 0 0 0
247 2 247 98.77349363868775 100.20668252203195 10.598680485729947 0 0 0
315 3 315 112.62714232922083 92.92694787656905 -1.4061116275701018 0 0 0
243 2 243 99.32771942570514 106.39072714472057 10.617121807331912 0 0 0
212 2 212 101.98106739045002 107.57999095701068 -0.9560870740905247 0 0 0
423 3 423 106.9192138868809 91.08048409385992 12.077843510643097 0 0 0
422 3 422 105.31857408120482 90.82363357709994 8.647100395653833 0 0 0
182 2 182 105.26982749785684 91.83789339015371 3.513093487163094 0 0 0
424 3 424 109.56202128438919 93.74359859459885 10.858290917484041 0 0 0
316 3 316 109.5707293616649 92.2635855299953 0.827350841109365 0 0 0
317 3 317 112.26882759000898 92.92155566820148 3.439200696070527 0 0 0
183 2 183 103.41555808487605 93.23359015715754 0.6166884808647364 0 0 0
208 2 208 99.7276736407033 102.02572676525692 -0.28026172819628153 0 0 0
181 2 181 107.86644218305204 94.63115706523729 3.314247437514937 0 0 0
425 3 425 106.7143018089178 95.7696220177582 9.071070243915736 0 0 0
426 3 426 104.56707137864001 95.58265704251274 12.074815269287917 0 0 0
178 2 178 107.04259427462384 95.61563901266146 7.926076850851769 0 0 0
180 2 180 105.2085965074602 97.37706110542838 3.2189421080743967 0 0 0
179 2 179 103.54176415640174 95.71062726590202 6.239515027457288 0 0 0
177 2 177 107.68363724586132 99.30478702837551 7.260584592502549 0 0 0
175 2 175 105.20169530237642 99.31950614328582 11.628793067767829 0 0 0
176 2 176 104.00380156781533 100.57581944016387 8.223896071155817 0 0 0
211 2 211 100.00387332524691 106.50813208114748 2.100124369711079 0 0 0
318 3 318 113.78491041776559 96.62768932314827 3.397016932244811 0 0 0
174 2 174 103.80032728683832 95.96292704263641 13.26727347116574 0 0 0
173 2 173 100.54232958321583 96.4398452344878 15.348043494950803 0 0 0
239 2 239 103.05506724330107 108.26703572618973 11.447323149808824 0 0 0
240 2 240 100.68502016823642 108.624353291418 14.60396509149552 0 0 0
427 3 427 104.89891249004351 98.31608090450315 14.9636588241551 0 0 0
389 3 389 126.62016971838295 99.99825603235008 -1.8179025537223303 0 0 0
396 3 396 123.48260349855869 90.5440313385437 -0.8385590401522434 0 0 0
323 3 323 124.43434490252963 90.5614054245613 5.7970915422001 0 0 0
326 3 326 132.06175603291945 91.02716154400214 2.975422938482528 0 0 0
322 3 322 121.03725067531192 91.30121039915187 4.532968364994897 0 0 0
325 3 325 129.013753814417 91.64668528771914 0.953605822245931 0 0 0
324 3 324 127.16451266008526 92.90780730580316 4.089730443473613 0 0 0
321 3 321 118.2394402124276 93.68465459605184 5.597429150565609 0 0 0
319 3 319 117.05083105073022 97.38554026836991 1.4916256920808098 0 0 0
320 3 320 119.4424356653929 96.99469807439945 4.426895423400796 0 0 0
84 1 84 97.27466893746741 127.1628395432036 -1.2769289852510382 0 0 0
242 2 242 96.84589886423781 109.30992764477698 10.55153867196751 0 0 0
86 1 86 93.1500579212033 123.17315231517391 -0.37339922767070355 0 0 0
85 1 85 96.90864525580822 123.86588008011009 0.6506427829868459 0 0 0
64 1 64 92.60304645237697 110.81348104806005 5.588630952451507 0 0 0
62 1 62 90.87119788651624 111.31592146535927 0.3816383848316004 0 0 0
63 1 63 89.29496342378363 111.17370718062497 3.647872643371267 0 0 0
66 1 66 91.56320885344249 116.10652280374636 3.5298005597282134 0 0 0
67 1 67 91.69362533424504 115.43613974936764 7.363802421525273 0 0 0
70 1 70 92.2657298810658 120.5986494431362 7.24854818026562 0 0 0
65 1 65 94.08798838889174 113.36702552321509 2.946440597645479 0 0 0
71 1 71 94.66500050411065 120.17889974360362 10.124840961072849 0 0 0
69 1 69 94.8235661291838 119.27990533639804 4.773235147897646 0 0 0
68 1 68 95.47568781130109 116.20341054463482 7.211092020478615 0 0 0
74 1 74 94.4836312230977 125.20233157810175 11.117031155629823 0 0 0
73 1 73 95.4788778430747 124.9088359965835 7.4918666699451855 0 0 0
241 2 241 97.3239870942691 110.48279512048492 14.243019534316906 0 0 0
72 1 72 97.51884556893316 121.7603287086554 8.444629179395925 0 0 0
75 1 75 98.3009242173556 124.89470983895829 12.282572025970643 0 0 0
82 1 82 95.30740384334673 127.89602559378326 3.440960721294929 0 0 0
213 2 213 99.93246451006306 110.76534502608568 -1.657587871980846 0 0 0
76 1 76 99.16957066431206 127.61636637902198 9.502576162811373 0 0 0
216 2 216 104.11411973918548 113.3672220816797 -0.838231172837584 0 0 0
220 2 220 105.92798245419618 118.99151069214702 0.11093106871994714 0 0 0
215 2 215 103.84144328563814 111.12235125008685 2.25290128771205 0 0 0
217 2 217 101.9027645240572 115.98033487218345 0.8951463542110635 0 0 0
224 2 224 107.91957852721157 124.48549472168648 2.292076833378451 0 0 0
219 2 219 107.12306601706442 116.03100104031314 2.1413365223542167 0 0 0
221 2 221 104.74049023211518 120.71815427390952 3.3676657187028125 0 0 0
214 2 214 99.98373452033623 111.28970206039533 2.234668917014553 0 0 0
218 2 218 104.02538144830527 115.76333616878796 4.271486013678574 0 0 0
238 2 238 101.40363564544597 111.24952020806069 9.572105959621943 0 0 0
237 2 237 101.3155553373837 113.39467708544133 12.723929722415425 0 0 0
234 2 234 104.06883915387665 117.12476791032871 10.398599658476444 0 0 0
235 2 235 105.80663854162609 113.82651259385814 9.937894732897819 0 0 0
233 2 233 105.79361728636046 117.80013802711821 13.838047339871903 0 0 0
222 2 222 107.97669136877585 119.81557847076391 5.191399085573649 0 0 0
230 2 230 108.04430122190038 121.77061725543703 12.317937664553362 0 0 0
231 2 231 108.85105072048646 118.89714958501713 9.761238621176291 0 0 0
232 2 232 109.28971923206294 116.41882401275085 12.75781373091414 0 0 0
225 2 225 108.88284792500063 124.98206866373108 6.083167715766397 0 0 0
223 2 223 109.94325100061008 121.09249696206071 2.238337900164722 0 0 0
227 2 227 112.15296550646516 124.65415692150867 10.44607165316195 0 0 0
226 2 226 112.48961550217334 125.69681609707357 6.828478178170138 0 0 0
228 2 228 113.43859169048473 120.91905646983169 11.193965220680145 0 0 0
236 2 236 105.02163937733009 112.5917956244439 13.363982760405667 0 0 0
229 2 229 111.05987572914074 120.59003106892318 14.261468533903685 0 0 0
83 1 83 94.08860363795196 128.67690238204372 -0.011886034579166158 0 0 0
79 1 79 95.01617582494416 132.85338891881477 5.2420648227959115 0 0 0
80 1 80 96.7996108160598 132.81578553412191 1.8730036430487582 0 0 0
78 1 78 98.45379938507647 132.56845475057042 7.000873718636756 0 0 0
77 1 77 99.16285589327202 131.29460850747162 10.391410061943427 0 0 0
81 1 81 98.62911071268987 129.47213937813015 2.423330845087234 0 0 0
298 2 298 89.16106015521561 75.36216553362051 14.955631418682307 0 0 0
297 2 297 86.2722285904733 77.52856681516631 13.539783575909878 0 0 0
267 2 267 91.17984493762297 86.00118289721391 16.704634827284373 0 0 0
270 2 270 88.40503836775656 86.1207368172897 21.22878055478286 0 0 0
269 2 269 86.38683218579183 88.08584786680332 18.671936138026123 0 0 0
271 2 271 90.62344773386559 89.2209800616424 21.933606493689894 0 0 0
268 2 268 89.81899627576063 89.6240737312897 17.148252662456578 0 0 0
283 2 283 93.29200102553636 87.1091867663155 31.296445433553274 0 0 0
284 2 284 93.20153576730836 86.53739998354936 27.427211137610527 0 0 0
286 2 286 97.59837648007537 89.58498831512978 23.278824743922126 0 0 0
285 2 285 96.77704234948668 88.05555504249016 26.55042238433419 0 0 0
434 3 434 102.92976938692556 84.1529785196293 14.760083008076215 0 0 0
432 3 432 101.6759639550174 89.06526619140915 17.06080535401533 0 0 0
433 3 433 103.2529138059821 85.84540257312979 18.379530280955183 0 0 0
165 2 165 90.52729790535483 97.80844047324025 15.708730715239279 0 0 0
273 2 273 85.68341593551861 89.41461030076951 25.19492334213724 0 0 0
274 2 274 89.14693643131872 89.44318361786254 27.229970740173957 0 0 0
289 2 289 90.55692780980694 92.9274608662705 17.257318703674994 0 0 0
272 2 272 87.593201308531 91.39432087528421 22.587866689888628 0 0 0
275 2 275 89.45143232170635 93.09443471744245 27.13312327149674 0 0 0
163 2 163 85.6325064130055 100.43666844908779 16.95455191650937 0 0 0
276 2 276 85.61298085941668 93.61080421063805 27.970224533277815 0 0 0
166 2 166 91.2972959434914 101.13311533463934 17.252388139571792 0 0 0
164 2 164 87.41844253281789 97.05233545906289 17.76265024124634 0 0 0
167 2 167 90.75381252284973 100.07799827987985 20.80490185253207 0 0 0
168 2 168 93.88474639305304 97.78850276925374 20.696974151748638 0 0 0
169 2 169 97.32740625673459 99.23760750688392 21.575148209495367 0 0 0
277 2 277 86.30001785620041 91.24450081821836 30.96483601855123 0 0 0
288 2 288 92.78138590965202 91.06213943190356 19.610591870356128 0 0 0
287 2 287 95.66275133202477 92.36566001817057 21.726793006524044 0 0 0
170 2 170 99.62221173293861 100.82581581670951 18.968166310945463 0 0 0
431 3 431 103.60212631268205 92.2885561910445 17.545030032529613 0 0 0
428 3 428 106.7826656197252 96.56825407444367 18.10852321248645 0 0 0
429 3 429 103.93657304846154 97.3354704909312 20.84875647815264 0 0 0
430 3 430 101.45986233075513 95.61498706655091 18.43954856646932 0 0 0
172 2 172 100.38951758363838 95.40861226675052 19.025347826686072 0 0 0
171 2 171 102.64494782633733 98.43595476708514 19.813456038950346 0 0 0
282 2 282 89.91665916122209 86.96193261207935 33.256878817330545 0 0 0
281 2 281 88.11633326906832 88.34208926255432 36.19304077329671 0 0 0
278 2 278 87.74495117821526 93.22871955520115 33.98859960914448 0 0 0
279 2 279 91.37387480212531 92.39419232998736 34.645120826420175 0 0 0
280 2 280 90.88614846124946 90.19055438881733 37.7834477532462 0 0 0

Velocities

579 -0.0009485753390940606 -0.0020324195644307 -0.0014929949225414856
594 -0.00265296511379493 0.0024491519958345386 -0.0019889078720839444
580 -0.0018128105949691041 -0.0002827654847400744 0.0013872218384159943
585 -0.0014140658355225207 0.0009504767566383684 0.0003540037414200857
581 -0.0014960771954323684 0.0012639031657238607 0.0005011688048199273
586 -0.0007865428254600296 0.0005494140244501533 -4.9143480096924876e-05
582 0.0001913317216367021 -0.0012627044107298576 -0.002947727190624673
584 0.0014918256036363107 0.002310985529655181 -0.0008278011896695857
583 -8.209046765444289e-05 -0.0007450432342639245 -0.0007834654249862743
578 0.0018771466051861227 -0.0023071654604792462 -0.0013863938521823645
576 0.0016056175138947758 0.0011809364488092906 0.001544223835364318
577 0.0017839068987875965 0.000259878092861076 0.001075372516982005
132 0.002134680798609039 0.00023363763363681985 -0.0019330376489803854
131 -0.00037207632872419694 0.001373651834078597 0.0006129113341934181
135 -0.0022177364477463427 -0.0003220669593802057 0.00023172255181797468
593 0.002702952743532865 0.0006851677492948963 3.68520965425059e-05
588 0.002458026777866902 0.0016794310169497195 -0.0001545335047171428
589 -6.784666018053173e-05 -0.0006251357291310192 -0.0013603246179749798
595 0.002661218386520565 0.0018893543615515272 -0.000953266256170067
592 0.00030181368191864433 -0.0009986805946915812 0.0023955633664681747
558 0.000966905327078245 0.0008745934491895696 -0.00380401034846527
559 -0.0017646012996386249 0.0005863949778730008 -0.0003949016825218521
560 -0.0012542184053419459 0.000721665588839236 0.0009765182446229229
591 2.4949972993134435e-05 0.0018683852063472938 -0.0007971103704581413
557 -0.002139018506266718 0.0033656458097379802 0.002392118661951038
590 -0.002247206602469913 0.00037330101891135505 0.0005739648919552467
561 -0.002811583399351651 0.0007508703270290445 -0.0008232458730827042
596 -0.0012872321678738942 0.00017965231763482657 -0.0019055948304342594
562 0.0008625841550295476 0.0014458920188144479 0.0017017429183795642
587 -0.0004882938839567885 0.0003380671076132797 -0.0007472392319666167
563 0.0024447165617313754 0.0008574382529567604 -0.00033930169127068584
568 -0.001161236319434352 -0.000419296892913635 -0.0010000725774050355
564 0.0005744992301728357 -0.0012476404988183457 -0.0011732512171528974
567 0.0016247863359530735 0.0005658215087663379 0.0013957861899324946
565 0.0008092425319981029 0.00019359285544838078 -0.0012696282253733522
571 -0.00252072980062547 -0.0008890520078312372 -0.001397121107689613
575 -0.0022830971916947534 0.0030286717800600796 -0.0018759371124924737
574 -0.0019548312273051107 0.00010563293627653726 -0.0011752002413806598
490 0.002018416641592948 -0.0006601125644127488 -0.00046582757895040144
487 -0.0005051158541405761 0.0018440190355161804 -0.001520235132155442
300 -0.003236284350807353 0.0023054482529849324 0.0008557644211656173
299 9.839505984750969e-05 -0.002087281700783556 -0.0005304027440387142
486 -0.0016982654619992134 0.0022009653131884687 -0.0020347874912384845
488 0.0010599478132788476 -0.0022261910867647713 -0.001045342628131778
554 -0.0015744303654910477 0.003914404162071958 -0.00011535895878175413
556 0.0007076165190874704 -0.001552308792097621 9.882558664136884e-05
555 -0.002528038306222804 -0.00014789001212183408 -0.0012932113121176467
489 0.0003973443837779944 -0.00042697878227256455 -0.0009859549450614445
485 -0.0002001292448872035 -1.7848473786068316e-05 0.002132474349489496
483 0.0011861868080918969 -0.00038818515679596134 -0.0015039010291343661
484 -0.00030299972260354154 -0.0005944071294140861 -0.0016341019571385188
480 0.0006347985790243382 0.0009141850993811192 -0.00325440572446298
482 -0.00014766764414614255 -0.0011571532820582988 -0.0023226972386205347
481 0.0023561011025894163 -0.00021399659728073967 0.000541941762089935
552 -0.0007739450533357536 0.0009453187880138724 -0.0005550779419337244
553 -0.002108155193413625 0.002127931133540619 -0.0018175768960228512
551 0.0011383320904064802 0.0024707004269237985 0.000535749796975164
477 -0.002312158795003065 0.001206767159215442 -0.0005315701646269892
548 0.002316188954520781 0.0001959236115649413 0.00011581585500988261
478 -0.0012983662631169562 -0.0007399212431866964 -0.0016088844111086273
479 -0.004076703672908531 0.0008107520189229296 0.0001730290196311773
549 -0.0012974035084324582 -0.0012692932863425722 -0.0007287212963204821
550 0.001065110159143947 -0.0013568823870544421 -0.001559777014670007
474 0.0021204392895089927 -0.0008478113053807247 -0.0025134527176161915
476 -0.0018992592178168825 0.0007058886017733593 0.0011663215206285118
547 0.00024356376429278645 0.0004327001454953328 0.0018637977625708757
473 -0.0007204120635424815 0.0009959052379194902 0.0005694834371881454
475 -0.0022107467621296853 -6.537905311723301e-05 -0.00021210501534507526
572 -0.0007687137096189361 0.001445947064357225 0.0006520305422256869
569 -0.0014605544000319164 0.0017495251856282038 -0.0016104053105777851
544 -0.0005555998897314224 -0.0003496448395889902 -6.856634113585204e-05
566 -0.0006137254728447068 0.002228569072204369 9.339526403821872e-06
472 -6.328608906090775e-05 -0.0015459673148383066 0.0007377842783529564
570 0.0003759219338561853 -0.001784708748447371 -0.004355990641813063
573 -0.00430652886843803 0.002215192099108204 -0.0005232451093450121
462 0.0006069145498657598 -0.000593634715717469 0.0015883966052613104
465 0.0006144057211324704 -0.00042800124441160474 -0.0017430493695974167
470 0.0010296157051370306 -0.0007116754650516791 -0.00019026952241303882
545 0.0017297599145867512 0.0022988561711875907 -0.0003254383150697829
546 0.0001860895371948736 0.001083626905385028 0.00282183871003646
471 0.0004098194954691161 0.0013387229812884727 -0.0007436062293115541
469 -0.0015736678838877537 -0.0013129893468296395 -0.000577470122658021
467 -0.0002607918997504796 -0.0014541517477817847 0.0014616403601806788
463 -0.0013162666812945097 0.0007411787187754835 -0.0024950759833157767
542 -0.0021751637438689416 0.000956272970788057 -6.157749026488099e-05
466 -0.002077680045982098 -0.0009664034005152869 0.0009905433966527202
468 0.000514275037815743 -0.0014431696239541737 0.0005491927122691285
464 -0.0005427129712286245 -0.0004682544070891502 -0.002161279328338985
543 0.000504539334147136 -0.001431957721538118 0.0008284519859448205
461 -0.000700733939795417 -0.0011379252473148833 0.0016317731031747025
541 0.0032093024454046787 -0.0011550116626897417 -0.00035803604459735906
142 0.0008329283197490167 -0.0014142922101035645 -0.00028599819613114565
141 -0.0012900547394088225 -0.0006302987521823929 -0.0030434744079496784
143 -4.9511275117351285e-05 0.0006240622693589368 0.00039974498306953637
140 0.002996621067495944 -6.159397664904872e-05 0.0019456388716797392
139 -0.0010119906323053421 -0.0004504470341480782 -0.001869536583748541
113 -0.0014694992878245639 2.4760089974536014e-06 -0.00022763187334385077
116 -0.0010006649168751323 -0.000746679623594631 -0.0007239911389038661
114 -0.001070458715667876 0.0025154529903054002 -0.0006164596871885348
117 -0.0002582612341124548 -0.0005940841776381318 0.0007572795156288817
115 -0.0013078581828663712 -0.0025021954267917686 0.001151202412542914
118 0.0007245769840443546 -0.0004303398551638714 0.0014424291073834449
120 -0.0007758611968570766 -0.002100126818748522 0.0009893234447311446
119 0.002683769606238614 5.36193652341561e-05 0.00047680041536354796
121 0.0022460783028634664 -0.001784381454145336 0.0001289673948085532
15 -7.028166775273077e-05 -7.519403592140357e-05 -0.0006489237565863584
14 0.0011809338040932572 -0.004126895735058334 0.0014584002515636604
520 -0.000570457132478069 -0.0003572877552925959 -0.0013673333011730545
530 -0.0013095411670458685 -0.0037014678301265512 -0.0023563401749687957
533 -0.00023801839786073052 -0.0001215827116199907 4.754939872967203e-05
529 -0.00045553450189604545 -0.0035759757204698794 0.0017538488285954485
538 -0.0036293937543692106 0.0008495124778466958 -0.0008650943989865641
537 -8.770461130981042e-06 -0.0004214198776841765 0.0023583323217565956
534 0.0006238686828261937 -0.0017831964924871137 -0.0004018737055112642
531 0.00046837812902875207 -0.0013495252557166263 -0.0007456297580968022
539 -0.0014888200467107825 -0.0021652063926040285 -0.0007776292652472421
535 -0.0005236383252694973 0.001448733855959055 0.0004909751429132408
536 -0.0014962243366780177 0.002562073378388294 -0.001474998597302446
540 0.0012431002366771018 -1.6010623245951326e-05 -0.0003609866766950822
532 0.0023947204744454004 -0.0001989823737454287 0.000651563492699567
145 0.0006060376721973457 -0.0007256883900590714 -0.0008169403529368661
146 0.002141209184903739 -0.0015986723382734529 0.001779863917826779
147 0.002177287976172217 -0.0010861527233464573 -0.000490880043724319
148 -0.0020505264492621626 -0.0008028189609752959 0.0014983923165410374
149 -0.0026005663922343664 0.0024033647760550204 0.0011715188507852275
136 -0.00029427055829042177 0.0025581878731147775 0.0011152449497401954
134 0.00034102921230360776 0.0019806770370470574 0.0012598771636897605
133 -0.0024919133125491646 0.00046479627749602937 -0.0011654232576250511
138 -6.203882032676256e-05 -0.0006325538285043467 0.00188081636081011
124 -0.000969278546284552 -0.00012910798055026598 0.003010386227522549
122 0.0007658701184839455 -0.0012865716758274335 -0.0019432879624012426
123 0.0005352342309836513 -0.002428296881902141 -0.0008505738261815524
18 -0.00017265244651364398 -0.00315278878648688 -0.00041695193153415156
129 0.0012258709317064264 -0.0008146263770993419 -0.0012736461816177987
130 -0.0003732015988579518 0.0008939609651135827 0.00037216837031926395
137 0.0010214448592288502 0.0009480243386717778 0.004584921724760157
125 0.0019127489364970545 -0.0018810304259118025 -0.0003972681779384892
19 0.0012433715070232173 -0.0019537272077082978 -0.0006847987411522639
126 0.001762038199003591 0.0017301861212023794 -6.091058741387206e-05
20 0.0020150017452815064 -0.0012447947313432046 -0.0014821468529350782
128 -0.0006565024505239147 -0.003414178479014809 0.0005630798183930892
127 -0.0008204296441621632 0.003928162212598395 -0.0012293502198316272
17 -0.00158339829440604 -0.00028117999254533883 -0.00017649026918517324
528 -0.0026194115509124622 3.5993657213216255e-05 0.0018609669727492966
527 -0.0010758206808646948 0.0035431309611678725 0.0006291606550977058
345 -0.0008362912717482269 0.0011704521929515209 -0.001232269893106986
346 -0.0005116901916177191 -0.0014397563139583367 0.0030331484934683945
344 0.0022779226863749967 -0.003678687433859708 0.003328033081287698
496 0.00037343684495819623 0.001243210497035331 -0.0016763288011276585
457 -0.001343005741800424 -0.0003510413024519752 0.00043482927828441084
343 -0.00012564617976363126 0.001746990960782787 0.00016621998374508924
197 0.0006372705229269344 0.001324371809759725 -0.0002149623111141759
198 -0.0011971457193722696 0.00032294802911963616 0.00014744668034190252
491 0.00010017846044452737 -0.0008794369139288754 -0.002353609315065756
493 -0.0002502171930842309 0.0006066342891429337 0.002483196501584357
309 0.0006420854960888226 0.0006250050962426353 -0.00016171776005424586
310 -0.000677433153402846 0.00045094624674065035 0.0026466748927221995
308 0.000661408109350317 0.001786614731163005 -0.0010716937167527907
305 -0.000978721254930954 -0.0008220970462844794 -0.0008518871791584246
492 0.00034399302910436384 0.0017133378631740545 0.00034036510684410255
189 -0.0009098746631025614 0.0010669829080157977 0.0008930733318822798
301 0.0009549052750897105 -0.002727483688635825 0.0011649460904511557
306 0.000373387033218396 0.0009743009620113995 0.0009284985240972181
302 0.0009398307001853548 0.0008690733591149944 0.0013795514744664333
313 -0.0007932404452751494 0.00539719024241357 -0.002430749595386164
190 0.0029131448399302615 -0.002292900706566271 -0.0002871494311913034
187 0.0022925500520259183 -0.0007822433670945666 -0.0011898862644373065
311 0.00010789214711568921 0.0005064929251898805 -0.0016657324466256326
307 0.001211537000199331 0.0014239398640696387 0.0011713755007567476
445 9.072917875767371e-05 -0.0006224660448587657 0.0016355200926286048
502 0.002229446794556798 -0.0009721335643830725 0.001872961719807645
506 -0.0008718656988658399 1.780515098490963e-05 -0.0008439235325550343
494 0.0009270764039890133 0.0008932239311756855 0.0011854970147994988
499 -0.0008870128693977107 0.00016811275077294982 -0.002125778471225348
456 -0.0011598278602287888 0.0003202151025754652 0.001753413214967725
498 -0.0006776323762747437 0.0020069428882231117 -0.0005558862473585627
303 0.0013438610749224077 -0.000629023733500924 -0.0007408279149856888
347 0.0029197836765564793 0.0014391062497363782 -0.002717543439107451
497 -0.0004829618075313278 0.0010565914366315217 0.0028618977750559855
495 -0.002805050005780881 -0.0018767353959128813 -2.133169993225021e-05
503 0.00044800322008722453 -0.0006514449443676136 0.00014358859015908452
505 -6.58147633013861e-05 -0.001988056301449132 0.001845946536737043
501 0.002156504448191091 -0.0004964818333889346 -0.0006662380207831792
304 0.000695379139087376 -0.00342641360253738 -0.0007348608382604404
500 0.0018134470846674108 0.000555847994873433 -0.0021704706588658606
507 -0.004405772828203887 0.00033560955986521783 0.0008311224534516104
508 -0.0003221581051915035 -0.0019624509234005844 -0.0010613706098039936
504 0.0006954516735123989 0.0013024602012609119 0.002125129583009024
348 -0.0021260544042946243 -0.0021755390713480566 0.00018763287585493434
349 0.0008779102572434151 0.0006491242169597397 -0.002149978523205684
351 0.0018523380027101618 -0.0018179592543487878 0.0007817839988718187
350 1.8544531629539908e-05 0.0007588752967097041 -0.0029584687996040034
352 -0.0005659904014381327 -0.002634215812319224 0.0004395944932307911
353 0.0008864599229625947 0.0015157912390458888 -0.0010998959240016363
355 -0.0009819675041175368 -0.003448836518132621 0.0017288269433381354
356 -0.002779309984969741 0.0007331583550977318 -1.7510555317143818e-05
398 -0.0028053342435522552 -0.001068477927004774 0.0018928537438331638
354 -0.002800046823202062 -0.0006310605129595791 0.0030277087441411867
357 -0.0022528597819605504 0.0004023502520515768 0.0021827132833761717
359 0.001435060380904759 0.0006020474987714549 0.00016507170686507223
402 0.0020639914398322976 0.0004016648206677573 0.0024052313601546347
339 0.000911690173955676 -0.001063683238765864 -0.0014289768287400494
448 0.0011611245759572902 0.0009495332970909129 9.818914705185362e-05
509 0.0013540644655366208 0.0006078824681690833 0.0008963227458810831
446 0.0027871479822102847 -0.0025283681763417034 -0.0033158194065872437
342 0.001343609673233141 0.0006240376283293181 -5.513527727090604e-05
455 -0.0018255901998312104 -0.0008427950529968221 -0.0009679363371472777
340 -0.0011707344274122624 0.0003321862351616483 0.0015648703549929572
458 0.001380477077897428 0.001436596797389282 0.0006233182748157139
460 0.0016230054033839628 -0.0002606943878204619 0.0013070384747785246
454 0.0010833870845097444 -0.0025367817248880546 -0.00031113895313263323
459 0.000705133479207845 0.003346198065259663 -0.000430506999187484
341 0.001229248045553076 -0.0020993038482114315 0.0001613349535760435
453 0.0009111476032897624 -0.0017993346629307976 0.001079457541575049
449 -0.002880776561738394 0.001492478006396353 0.0003576908500406716
452 -0.0003855549280463535 -0.0012078030391556565 -0.000753660178483035
451 -0.00021179519436351956 0.00031984145561954114 0.0010066512744604066
358 -0.00017300217475571433 -0.0015656429929122608 -0.0013328927090667175
450 0.00017489223073086 0.001727108933657639 0.001120534897585077
361 -0.00010461097750446091 -0.0008353617714121364 0.0027196953885680448
110 -0.000339073888006895 0.00211408400427719 -0.0007693035996474592
38 0.0014300983067881412 0.0009659787527886517 0.004091910601386276
109 0.00034221514005269464 0.0021669058434877573 -0.0027367763447519343
48 0.0012607811253636568 0.0005968932882378617 -0.00046046259786092545
37 -0.0024443153481365507 -0.0003489548396139699 -0.000651119972195768
41 0.0004345518142554762 0.0015206007552855476 -0.0009133288659079501
39 -0.0016037283727122803 -0.0015859960545542716 0.0005189929546852651
34 0.00031325690603792533 -0.0010352141514711026 0.0007639139603957666
108 -0.0012350602367790463 -0.0006020920658138326 0.0004033932592348767
112 -0.0001291781596583408 0.0015080161188186373 0.0011731267517343825
195 -0.0005472363149137117 -0.0015388257982174602 -0.0010148675193180324
111 -0.0018241637176577435 -2.8234798063178287e-05 0.001539144831118553
196 0.0015003332827407915 0.002127245544891628 -0.0017611472572482796
49 0.0003256517747639619 0.0007894330877262631 -0.00011366325973026281
194 -0.0019612763998533775 -0.0006735862412499505 -0.0017981953844969666
11 -0.00023191487968299155 -0.0004535087335648864 9.095043617644182e-05
10 -0.001268886217450625 0.0024112227160079072 -0.0020060196086339657
9 0.000698074720282127 2.5308313355519093e-05 0.00176335860679884
50 0.001984474564127516 -0.0015120790217390968 -0.0005874651677319834
51 -0.000475884413351649 0.0002611427440681286 -0.0008508196068597704
52 0.0009655864763921365 0.0006283884660171973 0.0004739977640252997
54 -0.0011803741612543966 -0.0004984417827106262 -0.0037602756102609646
107 0.0026105989983011193 0.0001698902787951195 2.6899549007412056e-05
55 -0.0038120848707107395 0.0010828205637312858 -0.0012310845698081344
104 -0.0004918077403503216 0.0002982374867520593 -0.0009505416334526176
103 -0.0007581997079499688 0.0004036202836451427 -0.004576929646593304
8 0.0025641527669810894 -0.0012662533368526282 0.0018416468675837017
6 0.0007861700395200913 -0.002532118486794907 -0.0009746433985678282
106 0.0008902120124512308 0.0017398518004702024 -0.0006773963293413217
105 -0.0005929319168546858 0.0012327214182297707 0.0009855229315425221
100 0.0019894361791801774 0.0011246545870541094 0.0012254510165697016
101 0.000947058565405991 -5.460677336968433e-06 -0.0009540357167211515
7 -0.003323890194256945 -0.0019700098912079954 0.0008009990999276221
202 -0.0005627812920601678 0.00011940691921356032 0.0005319959194589702
205 0.0025888518099987917 0.0011380304064229547 0.000667989083379963
58 -0.0007837244138264783 0.0002869040370142729 0.002654882647298944
53 0.0012377807605805909 -0.0031429139239343286 -0.0007102988169792288
206 0.001666149202526073 -0.002756515978697423 -0.0015561579803359657
201 -0.001130674141546106 -0.0006351343258742112 0.0003935982609816886
199 0.0016251329586512593 0.0015162908266863934 0.0038783480116222993
12 -0.0009694772100601425 -0.0007307358598828129 0.002295962507102363
5 2.938771204143487e-05 0.0006432126222832918 -0.002215601713592511
209 -0.00024134224155136915 -0.0010904740735044947 0.0012622175642733632
193 0.0024196251465381647 -0.00014137312187875297 0.0005150823195832635
13 -0.0010895237696006597 -0.0018134114310957268 0.0005619678625072744
188 8.044942217256469e-05 -0.0003889235515693927 -8.448351513248127e-06
312 -0.002624371679986452 0.0013329382585902968 -9.418187307152213e-05
191 0.0008038297692587934 -0.0003311379144642577 -0.0014492054693213698
192 -0.0009526519443594521 -0.0012544802333752834 -0.00016358177498390592
3 -0.0031127250194812853 -0.0002832595127448247 0.0018080970432046036
2 9.02594986339357e-05 -0.0020836595962322032 0.003039918921803433
4 0.0014070615321539652 -0.0012247417208701384 -0.000898440495025755
1 -0.001765469733461138 0.0014237998977097341 -0.000124390573834479
517 -0.001128982742608114 -0.0007771368402250778 -0.00132509589129217
513 0.0012301106259840714 0.0014979247312628657 0.0025084106083881124
521 0.0019048928089274988 -0.0002811025403740221 -0.0007526220529997278
360 -0.0006205644726553111 -0.0030601170825933495 -0.001202586441503227
510 -0.001988816251468789 -0.0019836893074307595 0.00038501044294690905
395 -0.0025245283930707177 0.0006838971251528938 0.0017018329538836716
394 0.0021864895814291798 -0.0021063052584363155 0.0005925263947724889
514 -0.0010080319502763062 -0.0005617487560151445 0.002923697594623459
518 0.0016269562087090255 -0.0018251228049749966 0.003511755097347359
512 0.0026509468017138988 0.0028020480091373607 0.0038990136961971865
511 0.00024798364566890833 -0.00019298715136696065 -0.0009670501150507634
515 7.439704725584667e-05 -0.00247327401991758 -0.0016851731108904232
391 0.0015275909158947096 -0.00022827889496638458 0.000261193849518866
387 -0.00038409424248396376 -0.0014555510392928984 0.0005148539312396934
516 -0.0010261318862413542 -0.00044021256332969565 -0.002599600807049411
386 0.001500134047844488 -0.0006389754276477007 0.0006932635741543553
390 -0.00010023220063122581 0.00040672734158659783 0.0003013989002053064
392 0.0025866087473032373 0.00029663408830304743 0.00013744537655252596
393 -0.0021744555674937448 0.000687577528871659 0.0013574642783462446
385 0.0020128091373662854 0.0032573700678670066 -0.0005977845198940617
388 -0.0008469713249077653 -0.0010808838388259748 -0.00010949431619824862
519 -0.0026712367495149683 -7.385868293712547e-05 0.0018679283633053852
383 0.0009542361318820502 -0.0006521028601343017 0.0005766157882884221
363 -0.0009671610466592013 0.0009245436204725161 0.0005077617894012519
382 0.003718694065362961 0.0017111137797412835 -0.002961174810260626
362 0.0016542857893942363 -0.004603483651409878 0.0007790489012692337
365 -0.00042550009906499263 -0.0009186321669417772 -0.001204939084926357
373 0.002927455149763273 -0.0033435825562626014 -0.0009462451987013815
374 -0.0002977738413944411 0.0004776156714121093 -0.002399161679047665
369 0.0011643713221247804 0.0012210226437054557 0.0015304747953540476
366 0.005217432071393114 0.0012988935435846042 -0.0023678610261889037
370 -0.0014081894415169432 0.0017070418737692977 -0.0016973021183155413
364 0.00036121494953837165 0.00010199679257053864 0.0007225421896674266
372 0.001684183686135178 -0.001833442010931092 -0.0016472596761603305
367 0.001115774922381388 -0.00015282968094246279 0.0017075013383021952
371 0.0018748474273161593 -0.0014822629293410113 -0.0025228989907609078
368 -0.0020876980956789862 -0.00026647324303596693 0.0007853537622944805
380 0.0019568490230608675 -0.0032996566407440036 -0.0009229081518935814
384 0.00024485876577728233 0.0014492696584801547 0.0028630640091167926
381 -0.0016830975964145975 0.0002946266889124214 -0.0017585628866344512
144 0.0008746642053197823 -0.0003075270199115077 -0.0021845362931138465
36 -0.0025133422589876477 1.0883733890253416e-05 -0.0009724250937005016
35 -0.0017877840576048716 -0.0019276265629605666 -0.0011680988300518049
33 0.0025043718511419464 -0.0006932641798824736 -0.0007599513172415714
32 -0.0023989772792778947 -0.0011645665174366644 -0.0019252074768098273
16 -0.0006069536667081565 0.0006186502383438503 0.00026671084222058974
102 -0.0014154505033795515 0.00024564988983674587 -0.0017659405689640188
29 -0.0006775018989765991 -0.0001782188216358847 -0.0004629569192941771
23 -0.0012170027102602228 -0.0022321886201342057 -0.0013953737805816736
31 0.0017928656026369957 0.0029287865636446267 -0.000679618403983081
21 -0.00113476770680594 0.000986984819248056 -0.00033275711145304047
22 -0.001661945496749312 0.00040032091052453843 -0.000991253267541337
99 0.0029012010124191546 0.0011883152794589361 0.0002515392639877836
96 0.0016974097294999533 0.0028292830215522753 -0.0007256813912283016
97 -0.0015174990697472692 0.0009104846279652761 0.0012349337861242984
24 0.00019755813527790376 0.001109326229098373 0.00037651983580485357
98 -0.000590263502432045 0.0011076068395063142 -0.0013262507971683736
30 -0.0008096237303120927 -0.0008012790287213853 0.0010876039817472383
25 -0.0017007173412209899 -0.0022762151155112176 -0.0026338362104638964
27 -0.0007947496540347844 0.0017874079196776164 0.0018504667620817229
26 -0.0010484476612634172 0.003694018641190909 -0.0028215117415187913
28 -0.0009137779633203314 0.0015896796737482715 -9.445548796590994e-05
90 -0.00026107323742281916 -0.0002022418592837491 0.002015197606991717
94 -0.0017586761831436613 0.0009320380668035747 -0.0021011616453482746
95 -0.0014118642828690807 -0.00025813571158428644 -0.00212253038335749
87 -0.0009560907123237297 0.0017994886826098728 0.001186599151815041
89 0.0006195432523486052 8.700701679236417e-05 0.0013176808122484693
91 0.0016106198947734502 -0.0002868671719837826 -0.000673848515120686
93 -0.0009210125429028711 -0.0008091947312807438 0.0007948604064496873
88 0.0005413995613917721 0.0019302057942697536 -0.00305759116157822
92 0.0005288183790359298 -0.0021823414237644606 -0.00012552766497412612
522 -0.0031900289081534553 -0.0027360687918121665 -0.0017880324295585126
523 0.0006196062980200936 0.00011134267025485645 3.879138648945444e-05
524 0.0017259365669160844 0.002426997445919724 0.001816413621655059
526 -0.0017976678259320616 0.00125227976849893 0.002786200727568124
375 0.0006074178642147705 -0.0018498078251328039 0.002178287873904614
377 4.653262833505313e-05 0.002605615810787255 -0.0014620125850208585
376 0.002334318842956304 0.001533007206195548 0.0003546409296027477
525 -0.0008849234218124189 0.0011049441655966033 0.0012955580624250788
378 0.0029493660760628294 -0.0008563474576997912 -0.0005145579802557162
379 0.000697010527218286 -0.0015938826311865132 0.00045339134269317173
447 0.0003092282466612232 0.0006371192197667979 0.0007243028174032789
263 0.0026137809184703102 0.0002962920348644466 0.0004182584387678388
260 0.00016764852080511939 0.0007880114658988558 0.00035491935022932485
262 0.0005756115690129192 0.0012573494333130153 -0.0012242346161251685
261 0.0011599931497630659 0.0006446246668032666 0.0027345501197573196
256 0.0007707965593540945 -0.0004934088175781795 0.0017531718689249097
257 -0.0020028954212301 0.001122972754268485 -0.0016348407660208388
293 -0.0018173816030508053 -0.0038383082213579085 -0.0010539479601175627
264 0.00012165846319550568 -0.00014834412296997642 0.0006183832943686557
259 -6.262807816637486e-05 0.004582411305169807 8.632851998324187e-05
294 -0.002976205354289262 -0.0009649586115797443 0.0013365206296550808
265 -0.0014518815911384495 0.0013699854958507173 0.0001491986716880856
296 -0.0003415165336347161 0.000612860746079199 -0.00041954899048408955
295 0.0005999884468469743 0.0021574460229431876 0.0005157584382277736
292 -0.00019729102610396897 -0.00037480303747371504 -0.0015452165576971917
255 -0.0012912034884219811 -0.00015547676081476415 0.0041000565385763835
266 -0.0030107635748281326 -0.0013254420158327026 4.4749666385566155e-05
444 0.00042665963053408975 -0.0009046129969149881 0.0006411885156851109
314 -0.0012952987887693017 0.0030196271592659385 0.0008463719046694403
258 -0.0014186264258613803 -0.000524265058412813 0.0015995545749141718
410 0.0008914774455344581 0.0009131559676909624 0.0003399246773150242
441 0.001163755283947153 -0.0023366900818090914 -0.00022973198648768424
439 0.003091063542965612 0.0006706582538889725 0.0005360301381861421
186 0.00014612303308325826 -0.0004653089305396558 0.0005418431671661102
411 -0.0011317202255841708 0.0013259479352951877 0.0012568590106640852
414 -3.9186653524477346e-05 0.0006288245936003848 0.00012106450676419137
412 0.0019494128441004683 -0.0002337300733496525 -0.0003459893322267433
415 0.0013314017109676743 0.0016463951205515385 0.00018795136442434845
437 0.00018743265614402704 0.000996281831179621 0.0017822265653110484
416 0.0004221135495886015 -0.0004305417884966854 -0.0017778404111466104
436 0.00024319578834715872 -5.520463835767301e-05 -0.0008623115702352972
417 0.00011349188735627747 0.0013749575724762082 0.0011902021888958345
419 -0.001211660017938427 0.002110031195843278 -0.00013251190719733047
418 -0.0006593459124812458 -0.0033758624530355478 0.0003193347992639502
420 0.0006522347470689677 0.0007670499997420717 0.0013358403449102703
413 -0.0006236706888846964 -0.00030345469201857876 0.002159467804499914
438 -0.0003940476386269928 -0.0009113245017515759 -0.0003790475277329365
440 0.0004924279688513795 0.000603884481907065 -0.00291455940679142
435 -0.0016076632805179136 -0.0019016696946595776 5.561663621775543e-05
421 -0.0001266560967205908 0.0008069270244246546 0.0016298230038131463
399 -0.0012871093337673935 0.0012880725385740312 0.002460220566891928
397 -0.0008672475207886229 -0.0006726655074714712 0.0022773002315240104
443 0.002187353163357129 0.0016355620657249683 0.0025883837597494197
409 0.0011369408134813109 -0.0020835895585310377 -0.002400850781040609
401 -0.001978824992708419 0.0008983873795986184 -0.0005753583582178088
406 -0.0015529037629370677 -0.0017687994103220282 -0.001111684539278656
442 0.0007034835420820311 -0.0015492639262699084 0.00019141170476985207
336 0.00046086846574264423 -0.002313220502479033 -0.000796056289356931
405 -0.0016225392391852101 -0.0031358047552482245 -0.0016145061049587484
403 0.00040461575302620334 -0.00041477024105659554 -0.0003238166017143393
332 0.0005588255197415953 -0.0005754292087857532 -0.00041647080644015576
408 -0.0016299624559640913 -0.002487679404311747 0.0013441513889739785
400 0.0005225778403858024 -0.001139763200405673 0.0017536060693177076
404 -0.0008749860493173486 -0.0014500890849955023 0.00048449873144721934
328 0.00015066921521330232 -0.0005160228844150682 -0.001690781344610468
407 0.0009739585604061794 0.0008934921612193282 -0.002433628356839699
331 -0.0008721230554636889 -0.003098062924175498 0.00038756149100686014
327 -0.0008708303292061488 0.002225185630278297 -0.0018082096483275196
335 6.567157219897551e-05 -0.0012863288947317422 -0.0003961779301741622
329 -0.00025110785118272015 -0.00036613874045108945 0.0009975530930119215
334 0.0025260280678470084 0.0006435764792751121 -0.0034521263766274985
330 0.0021512998088048314 -0.00419334387171331 -0.002087218559804857
333 -0.001343945844549091 0.00046668268085426186 -0.003140655104406671
337 -0.000675513857584589 0.0012656420960712074 0.0005883326897574473
338 0.0024505665277146714 0.0013016881057553525 -0.0009060231306812054
40 -0.0010300788652215214 -0.0011738250499123803 0.0008179839201750705
42 0.0011954191118990984 0.000967628669621173 0.00045776114710430844
43 -0.004165849935938678 0.00037155783288007405 -1.2354914343384979e-05
44 -0.0008364180933247533 -0.0022387310909566327 -0.002861025408988049
45 0.0010398455873189057 0.0004410600716086271 0.001345354458148507
46 -0.0006211971952392408 0.00043996858332583 -0.00173389875450187
151 -0.0008541728762213607 -0.0005550234882888567 -8.00644739205456e-05
150 -0.0008196911398736914 0.0007885495492078533 0.0008188262050511558
56 0.001387396633064137 -0.0009187747780055365 -0.0005362018921783646
59 0.0016353163338642903 0.000937249440633396 -0.001754973463972613
47 0.0026231646791400483 -0.0018917503335949039 -0.001685670163261048
291 0.0017465706804024506 0.0017245634771826616 -0.002105182915904421
200 -0.0003944349933299045 -0.0012024972504086136 -0.002157372079779739
159 -0.00148778526448406 0.0005534737452469276 -0.0010078523385361306
203 -0.0010987907274480275 0.0013313467513738286 0.002244314419572034
57 0.00014320382160613575 -0.0014569760597727623 0.002481369724765255
158 0.00151715450761371 -0.0008886160861114942 0.0005528016903581626
157 0.00023652039600496823 0.0020526618528343044 0.0018223686055470944
160 -0.0010269722780115453 -0.0026445447487375155 -0.00026531085475079395
253 -0.0026818933774608866 -0.0011884980256049232 -0.00024441077144428066
252 0.00028820876637540766 0.0009252673427380554 0.00465983148648965
155 -0.0013112192386687306 -1.2805223825007204e-05 0.00062816053537886
249 0.0017928437805298382 9.393526699895508e-05 0.0026664744974650573
156 -1.020943142372141e-05 0.0006157093867021075 -0.0007458599530200426
161 -0.0016795939261123284 0.0001834788298481977 -3.982607941627998e-05
154 -0.001743983818654823 -0.0019772581879361857 -0.002520860604336236
153 0.0004982590703811419 -0.00029306685573178635 0.001319580823139699
152 -0.0029111522294795423 -0.001636892673496413 -0.000987351748116156
60 -0.0018280277302798844 -0.002312954058426678 -0.0008388615305769222
248 -0.0009554359990953962 -0.0005161016838473194 -0.0008643101667801398
245 0.0004952181448245899 0.0022606044594490797 -0.0014220059308440204
61 -0.0013627073402578203 -0.0018805921387441077 0.0008777164002144365
207 0.0005466854151654457 -0.0014252500110998837 -0.0005933466199987594
204 0.0011189694011823068 3.838076751064719e-05 0.00028298370224289784
210 -0.0002609630810527298 -0.0011766679810400553 0.0005526213379836737
162 -0.00045732600632943646 0.0002762458361029286 0.0030130151044001166
246 0.0006184361088998434 0.001119625445497968 0.0016112418974182229
250 0.0013607962841464495 0.000909620200940546 -6.0233846400118535e-05
254 0.001384547557067011 -0.0013660864521400765 -0.0018710239200944092
251 0.0007870133120189628 -3.640549625937025e-05 0.00039143929309343314
244 0.0037709656587699945 -0.00047229854666213874 -0.0007906170666945343
290 2.762133573481733e-05 -0.002798169724815219 -7.04035443183562e-05
184 0.0019306347848789547 -0.0005750692936448518 0.0017412056104522695
185 -0.0025986501118209597 -0.0009955515308069317 0.0005545341829092419
247 0.0002965355497381542 0.0011683566444382902 -0.0035335575066904176
315 -0.0007879048389488985 -0.0018097456739449372 -0.0017807966493994395
243 0.0008448416842052882 0.00025284419288749727 0.0002645105110018236
212 0.0005543118616469522 1.518646849509378e-05 -0.000999398854201461
423 -0.0025332829829746244 -0.0010427489943801316 0.0011197039137899546
422 0.00027316355269714563 0.0019304525442957027 -0.00014128762558925144
182 0.00015491955430083776 -0.0015933149457596574 -0.0016638354896757227
424 -0.0017938486998956647 0.001460385106583585 0.00011668443765080864
316 0.0017562002125392604 -0.0003362870478135531 -0.00026344904680664674
317 0.002391984041754625 -0.0008205098800133231 0.000528723078899429
183 0.0015614455039746182 -0.0014175610730255339 -0.0006076310517261102
208 -0.0008372409776510094 -0.0011589622738524387 0.0033610594117400566
181 -0.0011504269547025449 -0.003401165103313789 -0.0002810838230879312
425 0.0027208190790747517 -0.00045873079752515233 0.0005168302091470188
426 -0.0007273034210476821 -0.0003904867845734942 0.0004606316933122361
178 0.0006564780652573814 0.0007351152424616761 -0.0008811807797573616
180 0.00012207572695165374 0.0022120416880130602 -0.0024674845794679873
179 -4.506343521056146e-05 0.0028826157080852335 0.0005854141531670401
177 -0.0004368590513276882 -0.0038291933600684324 -0.0010715819220793584
175 -0.000480867160452379 0.0005320914469446494 -0.00038960124173230756
176 -0.0009491769473245774 -0.00019749419270718104 -0.0003685012247159258
211 0.0014476788758965005 0.0001445684899411108 0.0037252632149611287
318 -0.000601876337272536 0.0018745009728924468 -0.0020035075024415067
174 0.00030026098965672755 0.002355352243117845 -7.193207416150151e-05
173 0.0001976108389355045 -0.0015154580421942482 0.0019337745782026924
239 -0.00017112185868168814 -0.004290631388849334 -0.0002946037461741014
240 -0.000292551341614633 -0.00016154330232404844 -0.0017549178884388146
427 0.00025810289359873306 0.0005383075310655612 -0.0010756631080828562
389 -0.0023426989317763573 0.0008405434167031935 -0.002813219787041497
396 -0.0009414531505422526 -0.0010656517683873558 -1.3035815882395606e-05
323 -0.00028442701884427864 0.0009472647434512104 0.0026775491598128327
326 -0.0007463803694606669 -0.0009194218056629556 0.0022797693466386944
322 -0.001993680702055847 -0.0012419720641921976 0.0014241999401520054
325 0.0027886076384747243 -0.0016246051440635485 -0.0002097697704066283
324 0.003689227903752598 -0.0022889363011856837 0.0011495281905088374
321 -0.0002895166187222502 -0.0011365356186782613 0.0014871419166303536
319 -0.0005795264751071096 -0.00011218274862009089 0.0012780467533887606
320 -0.0005584174799829273 0.0004680456628856846 -0.0016736565182035395
84 0.0027347212952848077 -0.00017938585021831438 -0.0014882360332173108
242 -0.0018191324678702258 -0.0014624930329669996 0.0010084546177323405
86 -0.000509848850157931 0.0005791221069672049 0.0008896499097856874
85 -0.0014048816481396606 -0.0003472486866529682 -0.0016615028283274913
64 -0.0004113851507384574 -0.0010564175753813895 0.0009721921090856318
62 0.0010050134003090842 0.000601792474241554 9.013947127684311e-05
63 -0.000489708642767629 -0.000718216469658934 0.0021105176084751562
66 0.0008357271568051115 -0.0011799456620015167 -7.397207076395422e-05
67 0.0012182228016286516 0.002290260968325181 -0.0005634303187998411
70 0.00015639809053999459 -0.0006455750800510894 0.001406365654278147
65 -0.0011988784519632624 0.0007216357494715351 -0.0013322886356143203
71 0.0014003957125404078 -0.0008795395880302992 0.0008498650509615195
69 2.7345067663682345e-05 -0.0009866053138974677 0.00037111407442398897
68 -0.0013610548119192365 3.275859160202456e-05 0.0011218624531777518
74 -0.0007541853006126114 -0.0012460211684535776 -0.001552781234468103
73 0.0008720863798887042 0.0019132696426761302 0.0002584198949671842
241 0.001626094809229391 0.0015468329586963844 -0.0005207530661029402
72 -0.0011236403515657678 0.000433719791976545 0.00224007807066574
75 -0.00021906122941238524 -0.002190587743137118 -0.00031396838445850943
82 -0.0006968830309179418 -0.00011399818242847343 0.0007733090256006635
213 -0.0029461882703111044 -0.0025580155277115345 0.0010518545112361065
76 0.0009681692142990556 0.001889789702051176 -0.0009285998172073881
216 -0.0014791230007914513 0.00048365553029050903 -0.0005510255821074664
220 -0.0024032972803190882 0.0002916510681165151 -5.394924853817913e-05
215 -0.0006775571762040109 0.00010816862497669327 -0.001644324086016428
217 0.00048255540445455694 -0.0020106167165971473 -0.003575520013445461
224 0.0007584376277493901 4.271996436084306e-05 0.0034130402506787573
219 0.0028732733734132456 0.0013716148231500132 0.0002278887528952021
221 -0.0015341090365005676 2.6554548815626493e-05 -0.0019436670628536637
214 -0.0029623123605449016 0.0009459073165240832 0.001550246558902602
218 0.0007524959355673133 -0.0009270748318419692 0.0008410637543894238
238 -0.0019058688241888903 -0.0013651777576077669 0.0011975295472325899
237 0.0009249913032257286 -0.0005464807890141826 0.0006595928074832146
234 -0.0001991325949650313 -0.0009377940276345169 -0.0010404300676859514
235 3.94413190855873e-05 0.0003992463230947773 0.0002600000135938984
233 0.002802492594320784 0.0009030556982586927 -0.0014478385116293787
222 -0.002032559302533226 -0.001036236807443685 -0.0007480920965162542
230 -0.003155522934570701 -0.0007212580948589055 -0.0013358103970179287
231 0.0011396169258939496 -0.0007998962004296139 0.002856826292932698
232 -0.0007925289585870282 -0.0006834966951279619 0.0003600784630729481
225 0.001516601163001692 0.000288586140110683 0.0008782325717956018
223 -0.00014058585785071915 0.0010473228556807167 -0.0005398006282967381
227 0.0025306188850337413 -0.0014677278538554911 -0.002679561952096784
226 0.00020170689616887528 -0.0007326332426724658 -0.0017006172212581914
228 0.0010828549911204497 -0.0034767247544131206 0.004766477192749224
236 0.0018765117912467291 0.0005945265675818638 -0.0008248408560449865
229 0.0025186964168286224 0.0023522973810358927 0.0006915060627041866
83 -0.0008916901663215987 0.0030392537892124736 -0.000737426166619231
79 0.0003204182584890339 0.0013838520305981656 -0.000192972091691929
80 -0.0002479994320309674 -0.00091231533512018 0.00020431571663088674
78 -0.0018879139020219775 -0.00023376376800272734 -0.0011793305267744304
77 -0.001143090824147537 0.001688810464500624 -0.002902482789407458
81 0.0016799941593288316 0.0007266149073383717 0.00022841016311010262
298 -0.0018700093485750655 -0.002126439075311934 -0.0023601743163997354
297 0.0006418900011579511 -0.00016685632432165057 0.0007450722768765534
267 -0.0007581596514613803 -0.0008976083895775662 0.0018289520085106017
270 8.70223496214481e-05 0.00016121738341569862 0.0019553490942465085
269 -0.00031623872189449784 -0.0014590055069388882 -0.00033303191389693753
271 -0.0033064494126490147 0.00012231995568405654 0.0013604376121922634
268 0.00025376377975021216 -0.000918947089869906 0.0007811664097217498
283 -4.897458348717676e-05 -0.0027000928236879484 0.0018584097226892078
284 0.0006369137131639152 1.5033806041273403e-05 -0.002183134052627521
286 0.00047941802322333635 -0.0004173022794126464 0.0026465897243485893
285 0.0032179656754306204 0.0002878818905322633 -0.000986271836421058
434 -0.002865618971948494 -0.0014150985137105882 0.0007628703093100857
432 -0.0015316190554686476 -0.0014140329231253595 0.0005258956542521277
433 -0.0008092040114921985 -0.0020271141361612797 0.002395036336029433
165 0.0006768313959827125 -0.0015734594620624666 -0.002124033120287419
273 -0.001655587319416008 0.0003983808080308405 -0.001924061147900483
274 0.0007085375576933344 0.0003760838737284734 -0.0026003169000725092
289 -0.0029753128405293604 0.0005640076886721901 0.00171597952004635
272 0.002122800658070629 0.0006711250882600789 -0.0013787346924644373
275 0.00044153025062762497 -0.0033675454729198825 -0.0006423239262891257
163 0.001983805221958877 0.00390819014251194 0.0008409288997058382
276 -0.0014952376277342799 -0.0008719830879612137 0.0010781180919042764
166 -0.0013815599338972706 0.002258488666557446 0.0022428658862310735
164 -0.0027689781991884492 0.0033214764373079874 0.002353561122938265
167 -0.0011791573675835167 -0.0010369762547495695 0.00145600265678637
168 0.0034606242313234455 0.0026581615674113345 -0.0011857609738156394
169 -0.0016607445653585703 -0.0018938241374939697 -0.0005024768513157045
277 0.0009364121981241167 0.0004928809493309673 -0.0013442395153442613
288 -0.00029086763328916557 0.0002920856606789716 0.0013369838750342121
287 0.0023403982689217027 -0.0015396846391998306 -0.003010327176866443
170 -0.0006156147262407247 0.0017128057995176847 -0.00023165333625455427
431 -0.00046019581541923587 -0.0007803022551079797 -0.00025812477988052603
428 0.0018534556184869465 0.00016632322453122994 -0.00038570034551524326
429 -0.005241167383420304 0.001221734553517449 0.0004618896214929584
430 0.001317251650922082 0.0028638632394120617 0.001241192970771333
172 0.0012632702992693247 3.562842492794386e-05 -0.0006979696653932522
171 0.0008345376907447695 0.0019313117350765977 -0.0015760003997921273
282 -0.0008287360370246072 -0.001310073120532194 0.002542208832794786
281 -0.0008791956702700425 0.00014734173609222835 -2.9194909258887874e-05
278 0.0026454496820037593 0.0005474532216505953 -0.0008075144618561169
279 -0.0008623739016738063 -0.0010627726222017522 -4.803374240683675e-05
280 -0.0027371613632565994 0.0017005146474451446 -0.0019784657638571537

Bonds

1 1102 579 581
2 1108 579 580
3 614 594 596
4 1153 594 595
5 1103 580 581
6 1123 580 582
7 1128 585 586
8 1132 585 587
9 1104 581 582
10 1105 581 583
11 1155 586 587
12 1156 586 588
13 976 582 583
14 1121 582 584
15 1127 584 585
16 1154 584 586
17 1122 583 584
18 1124 583 585
19 1106 578 579
20 1107 578 580
21 1109 576 578
22 1111 576 579
23 1112 576 580
24 1116 576 577
25 1110 577 578
26 632 577 579
27 711 577 580
28 8 132 134
29 14 132 133
30 21 131 132
31 22 131 133
32 126 135 136
33 127 135 137
34 885 593 595
35 1157 593 594
36 1203 588 589
37 1204 588 590
38 1126 589 596
39 1199 589 593
40 1205 589 590
41 1211 589 591
42 1125 595 596
43 1158 592 594
44 1201 592 593
45 1232 558 559
46 1233 558 560
47 1234 558 561
48 1235 558 562
49 1241 559 560
50 1242 559 561
51 1243 559 562
52 1244 559 563
53 1167 560 564
54 1245 560 561
55 1246 560 562
56 1247 560 563
57 1202 591 593
58 1230 591 592
59 1209 557 590
60 1231 557 591
61 1237 557 558
62 1278 557 559
63 1279 557 561
64 1280 557 562
65 1200 590 593
66 1210 590 592
67 1212 590 591
68 1168 561 564
69 1171 561 565
70 1248 561 562
71 1249 561 563
72 1169 562 564
73 1172 562 565
74 1190 562 566
75 1250 562 563
76 1206 587 588
77 1207 587 589
78 1170 563 564
79 1173 563 565
80 1191 563 566
81 1192 563 567
82 1130 568 585
83 1143 568 571
84 1146 568 572
85 1181 568 569
86 1182 568 570
87 1159 564 565
88 572 564 566
89 1160 564 567
90 1161 564 568
91 1142 567 571
92 1178 567 568
93 1179 567 569
94 1180 567 570
95 1129 565 585
96 1162 565 566
97 1163 565 567
98 1164 565 568
99 1165 565 569
100 1166 565 587
101 1133 571 572
102 1134 571 573
103 1136 571 574
104 1137 571 575
105 1114 575 579
106 1115 575 580
107 1118 575 576
108 1119 575 577
109 1117 574 576
110 1151 574 575
111 1618 490 491
112 1684 490 492
113 1605 487 488
114 1606 487 489
115 1607 487 491
116 1608 487 493
117 1615 487 490
118 1622 300 489
119 1623 300 491
120 1681 300 490
121 1650 300 301
122 1685 300 302
123 855 299 490
124 160 299 300
125 1682 299 301
126 1451 486 487
127 1452 486 488
128 1453 486 489
129 1454 486 490
130 1571 488 494
131 1573 488 499
132 1609 488 489
133 1610 488 491
134 1611 488 493
135 1616 488 490
136 1619 488 492
137 1239 554 558
138 1251 554 559
139 1253 554 562
140 1272 554 556
141 1274 554 557
142 1302 554 555
143 1208 556 590
144 1236 556 558
145 1270 556 557
146 1240 555 558
147 1275 555 556
148 1276 555 557
149 1612 489 491
150 1614 489 503
151 1617 489 490
152 1443 485 486
153 1448 485 487
154 1449 485 488
155 1450 485 489
156 1312 483 484
157 1359 483 485
158 1360 483 486
159 1313 484 485
160 1314 484 486
161 1311 480 484
162 1326 480 481
163 1330 480 482
164 1358 480 483
165 1316 482 484
166 1357 482 483
167 1446 482 485
168 1447 482 486
169 1466 482 489
170 1315 481 484
171 1361 481 483
172 1423 481 552
173 1444 481 485
174 1445 481 486
175 1465 481 482
176 1277 552 556
177 1294 552 553
178 1297 552 554
179 1417 552 555
180 1238 553 558
181 1252 553 562
182 1271 553 556
183 1273 553 557
184 1285 553 554
185 1301 553 555
186 1293 551 553
187 1296 551 554
188 1416 551 555
189 1421 551 552
190 1288 477 549
191 1317 477 480
192 1322 477 479
193 1325 477 481
194 1328 477 548
195 876 477 478
196 1303 548 549
197 1304 548 550
198 1430 548 551
199 1431 548 552
200 1329 478 480
201 1366 478 479
202 1455 478 481
203 1464 478 482
204 1324 479 480
205 1356 479 483
206 1370 479 482
207 1371 479 481
208 1281 549 550
209 1282 549 553
210 1289 549 551
211 1290 549 552
212 1283 550 553
213 1284 550 554
214 1291 550 551
215 1292 550 552
216 1320 474 477
217 1335 474 545
218 1338 474 475
219 1339 474 544
220 1341 474 541
221 1344 474 478
222 1369 474 476
223 1321 476 477
224 1323 476 480
225 1362 476 479
226 1365 476 478
227 1299 547 549
228 1300 547 550
229 1422 547 551
230 1440 547 548
231 1319 473 477
232 971 473 474
233 1334 473 545
234 1337 473 475
235 1368 473 476
236 1327 475 477
237 1363 475 476
238 1364 475 479
239 1372 475 478
240 1113 572 580
241 1135 572 573
242 1138 572 574
243 1139 572 575
244 1131 569 585
245 1144 569 571
246 1147 569 572
247 1149 569 573
248 1183 569 570
249 1309 544 546
250 519 544 545
251 1439 544 547
252 1456 544 548
253 1174 566 567
254 1175 566 568
255 1176 566 569
256 1177 566 570
257 1318 472 477
258 1331 472 473
259 1332 472 474
260 1333 472 545
261 1367 472 476
262 1145 570 571
263 1148 570 572
264 1150 570 573
265 1152 570 574
266 1120 573 576
267 1140 573 574
268 1141 573 575
269 1185 462 566
270 1186 462 567
271 1197 462 465
272 1223 462 466
273 1254 462 463
274 1257 462 464
275 1184 465 570
276 1193 465 466
277 1194 465 467
278 876 470 471
279 1217 470 472
280 1298 545 549
281 1305 545 546
282 1340 545 548
283 1343 545 547
284 1286 546 549
285 1287 546 550
286 1306 546 547
287 1310 546 548
288 1226 471 472
289 1227 471 473
290 1228 471 545
291 1229 471 546
292 1216 469 470
293 1225 469 471
294 1214 467 470
295 1140 467 468
296 853 467 469
297 1198 463 465
298 1224 463 466
299 486 463 464
300 1260 463 546
301 1307 542 546
302 1336 542 545
303 1350 542 544
304 1351 542 543
305 1187 466 566
306 1188 466 569
307 1189 466 570
308 1213 466 470
309 1218 466 467
310 1219 466 468
311 1215 468 470
312 1220 468 469
313 917 468 471
314 1196 464 465
315 1221 464 466
316 1222 464 468
317 1308 543 546
318 1345 543 545
319 1438 543 547
320 1459 543 544
321 1195 461 465
322 1256 461 462
323 1259 461 463
324 1265 461 464
325 1342 541 545
326 1349 541 542
327 1442 541 543
328 1457 541 544
329 214 142 143
330 215 142 144
331 212 141 143
332 219 141 142
333 209 143 144
334 210 143 145
335 221 140 141
336 242 140 142
337 220 139 141
338 244 139 140
339 51 113 117
340 59 113 116
341 183 113 114
342 184 113 115
343 44 116 117
344 52 116 120
345 53 116 119
346 101 116 118
347 48 114 117
348 56 114 116
349 105 114 118
350 218 114 141
351 224 114 115
352 225 114 140
353 45 117 120
354 46 117 118
355 47 117 121
356 50 117 119
357 49 115 117
358 57 115 116
359 106 115 118
360 118 115 119
361 226 115 140
362 82 118 121
363 83 118 122
364 84 118 138
365 88 118 119
366 95 118 139
367 96 118 140
368 102 118 120
369 7 120 124
370 55 120 123
371 103 120 121
372 104 120 122
373 54 119 120
374 89 119 121
375 91 119 122
376 109 119 123
377 5 121 124
378 29 121 125
379 85 121 122
380 86 121 138
381 90 121 123
382 72 15 16
383 73 15 17
384 74 15 18
385 116 15 119
386 65 14 15
387 69 14 16
388 70 14 17
389 71 14 18
390 1478 520 533
391 1488 520 532
392 1504 520 529
393 1505 520 530
394 1738 520 521
395 1742 520 522
396 1743 520 523
397 1475 530 533
398 1482 530 532
399 1484 530 534
400 1501 530 531
401 1374 533 537
402 1467 533 536
403 1459 533 534
404 1469 533 535
405 1499 529 530
406 1500 529 531
407 1347 538 542
408 698 538 539
409 1384 538 540
410 1385 538 541
411 1373 537 538
412 1381 537 539
413 1382 537 540
414 1383 537 541
415 1377 534 537
416 1379 534 538
417 1471 534 536
418 1481 534 535
419 1476 531 533
420 1483 531 532
421 1485 531 534
422 1486 531 535
423 1346 539 542
424 1353 539 540
425 1354 539 541
426 1352 535 539
427 1378 535 537
428 1380 535 538
429 1463 535 540
430 1472 535 536
431 1355 536 539
432 1375 536 537
433 1376 536 538
434 1461 536 540
435 1462 536 541
436 1348 540 542
437 1441 540 543
438 1460 540 541
439 1468 532 533
440 1470 532 536
441 1479 532 534
442 1480 532 535
443 213 145 147
444 217 145 146
445 332 146 148
446 333 146 147
447 334 147 148
448 382 147 149
449 335 148 149
450 128 136 137
451 129 136 138
452 10 134 135
453 11 134 136
454 12 134 137
455 9 133 134
456 28 133 135
457 98 138 139
458 99 138 140
459 1 124 127
460 2 124 128
461 4 124 126
462 27 124 125
463 6 122 124
464 30 122 125
465 87 122 138
466 92 122 123
467 93 122 137
468 97 122 139
469 100 122 126
470 3 123 124
471 32 123 125
472 41 123 127
473 114 123 126
474 112 18 19
475 113 18 123
476 123 18 20
477 18 129 132
478 20 129 133
479 37 129 130
480 43 129 131
481 24 130 132
482 25 130 133
483 42 130 131
484 94 137 138
485 130 137 139
486 13 125 133
487 15 125 127
488 16 125 128
489 23 125 137
490 26 125 126
491 31 125 138
492 107 19 119
493 108 19 123
494 115 19 20
495 117 19 21
496 38 126 127
497 39 126 128
498 40 126 129
499 131 20 21
500 132 20 22
501 133 20 23
502 17 128 132
503 19 128 133
504 35 128 129
505 36 128 130
506 33 127 128
507 34 127 129
508 111 17 19
509 121 17 18
510 122 17 20
511 1496 528 529
512 1497 528 530
513 1498 528 531
514 895 527 528
515 1506 527 529
516 1395 345 456
517 1535 345 351
518 1536 345 455
519 1539 345 347
520 1543 345 346
521 1761 346 347
522 1762 346 348
523 1763 346 350
524 1520 344 455
525 1524 344 346
526 1542 344 345
527 292 496 498
528 1530 496 497
529 1533 496 499
530 1534 496 500
531 1388 457 458
532 1389 457 459
533 1390 343 457
534 1412 343 454
535 1515 343 344
536 1519 343 455
537 1541 343 345
538 299 197 198
539 300 197 201
540 303 197 199
541 301 198 201
542 302 198 202
543 304 198 199
544 305 198 200
545 1613 491 493
546 1620 491 492
547 994 493 494
548 1572 493 495
549 1960 309 310
550 1963 309 311
551 1968 309 313
552 1961 310 314
553 1964 310 311
554 1965 310 312
555 1969 310 313
556 1914 308 309
557 1915 308 310
558 617 305 307
559 708 305 306
560 1812 305 492
561 1824 305 309
562 1825 305 310
563 1828 305 308
564 1575 492 494
565 1621 492 493
566 145 189 190
567 148 189 193
568 163 189 191
569 164 189 192
570 1624 301 489
571 1625 301 491
572 1683 301 490
573 1813 301 492
574 1819 301 303
575 1836 301 302
576 1576 306 495
577 1810 306 492
578 1814 306 307
579 1815 306 308
580 933 302 303
581 1820 302 304
582 1821 302 305
583 1837 302 310
584 1970 313 314
585 2034 313 417
586 2035 313 316
587 2036 313 418
588 2041 313 315
589 142 190 193
590 146 190 191
591 147 190 192
592 155 190 197
593 156 190 201
594 159 187 190
595 174 187 188
596 175 187 189
597 176 187 191
598 1966 311 314
599 1178 311 312
600 1997 311 315
601 1999 311 313
602 1802 307 309
603 1232 307 308
604 1752 445 446
605 2070 445 447
606 1420 502 551
607 1429 502 548
608 88 502 503
609 1435 502 504
610 1436 502 505
611 1437 502 506
612 1634 506 507
613 1635 506 508
614 436 506 509
615 1639 506 510
616 1531 494 496
617 1564 494 495
618 1565 494 499
619 1567 494 500
620 1433 499 502
621 1569 499 500
622 1570 499 501
623 1574 499 503
624 1394 456 458
625 1397 456 457
626 1295 498 554
627 1415 498 555
628 1418 498 502
629 1419 498 551
630 1424 498 500
631 1425 498 501
632 1432 498 499
633 1816 303 304
634 1817 303 305
635 1556 347 351
636 1779 347 348
637 1780 347 349
638 1782 347 350
639 1434 497 498
640 1537 497 500
641 1538 497 501
642 1578 497 499
643 1532 495 496
644 1566 495 499
645 1568 495 500
646 1577 495 497
647 33 503 504
648 1626 503 505
649 1627 503 506
650 1004 503 507
651 1458 505 548
652 1630 505 506
653 1631 505 507
654 1632 505 508
655 1633 505 509
656 1427 501 502
657 1428 501 551
658 1581 501 503
659 1583 501 504
660 1584 501 505
661 1801 304 307
662 1811 304 306
663 1818 304 305
664 1822 304 309
665 1823 304 310
666 1826 304 311
667 1827 304 308
668 1426 500 502
669 1373 500 501
670 1580 500 503
671 1582 500 504
672 63 507 508
673 1636 507 509
674 1640 507 510
675 1643 507 511
676 1637 508 509
677 1641 508 510
678 1644 508 511
679 1645 508 512
680 160 504 505
681 1628 504 506
682 1629 504 507
683 1244 504 508
684 1540 348 497
685 1557 348 351
686 1579 348 495
687 1587 348 500
688 1781 348 349
689 1783 348 350
690 1786 348 352
691 1558 349 351
692 1784 349 350
693 1785 349 406
694 1787 349 352
695 1788 349 353
696 1789 349 402
697 1544 351 354
698 1546 351 355
699 1551 351 352
700 1552 351 353
701 1586 351 501
702 1547 350 351
703 1549 350 354
704 1791 350 352
705 1792 350 353
706 1553 352 354
707 1585 352 501
708 1590 352 355
709 749 352 504
710 201 352 353
711 1803 352 356
712 1554 353 354
713 1591 353 355
714 1804 353 356
715 1805 353 357
716 1806 353 399
717 1807 353 402
718 1588 355 358
719 1589 355 504
720 1592 355 356
721 1593 355 359
722 1594 355 357
723 1600 356 358
724 1663 356 359
725 844 356 357
726 1808 356 360
727 1936 398 399
728 1924 398 400
729 1939 398 401
730 1940 398 402
731 1545 354 450
732 372 354 355
733 1550 354 358
734 1555 354 356
735 1559 354 357
736 1598 357 358
737 1603 357 361
738 1393 357 359
739 1809 357 360
740 1638 359 508
741 1648 359 362
742 1649 359 363
743 1041 359 360
744 1660 359 361
745 1887 402 406
746 1897 402 403
747 1918 402 405
748 1300 402 404
749 1521 339 342
750 1528 339 341
751 1760 339 346
752 1769 339 340
753 1562 448 449
754 1563 448 450
755 1642 509 510
756 1646 509 511
757 1647 509 512
758 760 509 513
759 2106 446 447
760 1514 342 343
761 1164 342 344
762 1518 342 455
763 1391 455 457
764 1396 455 456
765 1523 340 342
766 1529 340 341
767 1548 340 354
768 1790 340 350
769 1261 458 462
770 1267 458 460
771 1405 458 459
772 1255 460 462
773 1258 460 463
774 1263 460 461
775 1264 460 464
776 1387 454 457
777 1393 454 456
778 1403 454 458
779 1404 454 459
780 1410 454 455
781 821 459 462
782 1262 459 463
783 1268 459 460
784 1269 459 461
785 1516 341 342
786 1517 341 343
787 1525 341 450
788 1266 453 460
789 1386 453 457
790 1392 453 456
791 1400 453 454
792 1401 453 458
793 1402 453 459
794 1409 453 455
795 1413 449 451
796 1560 449 450
797 1398 452 453
798 1399 452 454
799 1406 451 452
800 1407 451 453
801 1408 451 454
802 1561 358 449
803 1595 358 361
804 1596 358 359
805 1597 358 362
806 1599 358 360
807 1411 450 452
808 1414 450 451
809 1601 361 364
810 1602 361 365
811 1661 361 362
812 1662 361 363
813 186 110 112
814 231 110 111
815 232 110 114
816 235 110 115
817 243 110 142
818 688 38 39
819 689 38 40
820 691 38 41
821 692 38 42
822 230 109 111
823 392 109 110
824 338 48 50
825 633 48 49
826 634 48 52
827 687 37 38
828 760 37 39
829 650 41 52
830 934 41 44
831 851 41 42
832 982 41 43
833 973 39 40
834 974 39 41
835 975 39 42
836 223 39 43
837 980 39 150
838 690 34 38
839 753 34 36
840 755 34 37
841 406 34 35
842 780 34 39
843 229 108 111
844 390 108 109
845 391 108 110
846 58 112 116
847 178 112 113
848 180 112 114
849 181 112 115
850 139 195 196
851 141 195 197
852 179 111 112
853 182 111 113
854 222 111 114
855 223 111 115
856 296 196 197
857 297 196 198
858 339 49 50
859 342 49 51
860 635 49 52
861 636 49 53
862 138 194 195
863 158 194 196
864 77 11 12
865 78 11 13
866 79 11 15
867 125 11 16
868 81 10 12
869 193 10 11
870 187 9 10
871 192 9 11
872 298 50 196
873 336 50 51
874 340 50 52
875 341 50 53
876 345 50 54
877 348 50 199
878 337 51 104
879 343 51 52
880 344 51 53
881 346 51 54
882 347 51 55
883 403 51 108
884 637 52 53
885 638 52 54
886 640 52 55
887 647 52 56
888 352 54 202
889 374 54 206
890 653 54 203
891 655 54 56
892 656 54 57
893 657 54 58
894 698 54 55
895 185 107 112
896 228 107 111
897 234 107 115
898 387 107 108
899 388 107 109
900 389 107 110
901 415 55 104
902 422 55 101
903 694 55 56
904 695 55 57
905 696 55 58
906 697 55 59
907 394 104 106
908 397 104 107
909 399 104 108
910 406 104 105
911 393 103 106
912 396 103 107
913 404 103 104
914 405 103 105
915 140 8 195
916 152 8 193
917 154 8 194
918 189 8 9
919 191 8 10
920 200 8 196
921 75 6 12
922 76 6 13
923 194 6 9
924 195 6 10
925 198 6 7
926 199 6 8
927 236 6 11
928 238 6 100
929 227 106 111
930 233 106 115
931 383 106 107
932 384 106 108
933 385 106 109
934 386 106 110
935 395 105 106
936 398 105 107
937 400 105 108
938 401 105 109
939 407 100 103
940 409 100 104
941 416 100 101
942 454 100 102
943 408 101 103
944 410 101 104
945 411 101 105
946 119 101 102
947 80 7 12
948 153 7 194
949 188 7 9
950 190 7 10
951 196 7 8
952 59 7 11
953 349 202 204
954 350 202 205
955 351 202 206
956 353 202 203
957 359 205 206
958 360 205 208
959 362 205 209
960 369 205 207
961 380 58 206
962 421 58 101
963 706 58 59
964 707 58 60
965 710 58 61
966 716 58 62
967 639 53 54
968 641 53 55
969 648 53 56
970 649 53 57
971 652 53 199
972 361 206 208
973 363 206 209
974 364 206 210
975 237 206 207
976 264 201 202
977 308 201 204
978 309 201 205
979 310 201 253
980 311 201 203
981 306 199 201
982 354 199 202
983 600 199 200
984 602 199 203
985 60 12 13
986 61 12 14
987 62 12 15
988 66 12 16
989 71 5 7
990 237 5 6
991 424 209 210
992 425 209 212
993 426 209 213
994 430 209 211
995 137 193 195
996 143 193 194
997 157 193 196
998 63 13 14
999 64 13 15
1000 67 13 16
1001 68 13 17
1002 144 188 190
1003 160 188 189
1004 161 188 191
1005 162 188 192
1006 1967 312 314
1007 1996 312 316
1008 1998 312 315
1009 1886 312 313
1010 149 191 193
1011 165 191 192
1012 171 191 205
1013 172 191 201
1014 150 192 193
1015 151 192 194
1016 166 3 191
1017 167 3 192
1018 203 3 4
1019 206 3 205
1020 207 3 209
1021 239 3 5
1022 201 2 3
1023 202 2 4
1024 168 4 192
1025 197 4 7
1026 240 4 5
1027 241 4 6
1028 204 1 2
1029 205 1 3
1030 208 1 184
1031 1477 517 533
1032 1729 517 518
1033 1730 517 521
1034 1732 517 519
1035 1733 517 520
1036 1473 513 533
1037 1696 513 514
1038 1697 513 515
1039 1698 513 516
1040 1702 513 517
1041 708 521 522
1042 1739 521 523
1043 1604 360 361
1044 1658 360 362
1045 1659 360 363
1046 1676 360 364
1047 1686 510 511
1048 1687 510 512
1049 1688 510 513
1050 1689 510 514
1051 1832 395 396
1052 1833 395 397
1053 114 395 398
1054 1835 395 399
1055 27 394 395
1056 1975 394 397
1057 1976 394 398
1058 1980 394 396
1059 1699 514 515
1060 1700 514 516
1061 1703 514 517
1062 1704 514 518
1063 1731 518 521
1064 1734 518 519
1065 1735 518 520
1066 1736 518 522
1067 900 512 513
1068 1693 512 514
1069 1694 512 515
1070 1695 512 516
1071 757 511 512
1072 1690 511 513
1073 1691 511 514
1074 1692 511 515
1075 1701 515 516
1076 1705 515 517
1077 1706 515 518
1078 1709 515 519
1079 1829 391 395
1080 1842 391 392
1081 1843 391 393
1082 1845 391 394
1083 1839 387 391
1084 1148 387 389
1085 1866 387 390
1086 1020 387 388
1087 1870 387 392
1088 1474 516 533
1089 1489 516 532
1090 1707 516 517
1091 1708 516 518
1092 1710 516 519
1093 1711 516 520
1094 1838 386 391
1095 1855 386 387
1096 1864 386 389
1097 1865 386 390
1098 1869 386 388
1099 1840 390 391
1100 318 390 392
1101 795 390 393
1102 1830 392 395
1103 1978 392 394
1104 1986 392 393
1105 1987 392 396
1106 1831 393 395
1107 1979 393 394
1108 1981 393 397
1109 1988 393 396
1110 1853 385 386
1111 1854 385 387
1112 1863 385 389
1113 1868 385 388
1114 1844 388 391
1115 1989 388 392
1116 973 388 389
1117 2001 388 390
1118 1487 519 532
1119 1737 519 521
1120 1740 519 520
1121 1198 519 522
1122 1741 519 523
1123 1846 383 384
1124 1847 383 385
1125 1848 383 386
1126 1849 383 387
1127 1654 363 364
1128 1655 363 365
1129 1656 363 366
1130 1657 363 512
1131 386 363 367
1132 1857 382 383
1133 1859 382 384
1134 1861 382 385
1135 1862 382 386
1136 1650 362 363
1137 1651 362 364
1138 1652 362 365
1139 1653 362 366
1140 1666 365 366
1141 1668 365 368
1142 1671 365 367
1143 1673 365 369
1144 1494 373 374
1145 1495 373 375
1146 1508 374 526
1147 1748 374 376
1148 1749 374 377
1149 1751 374 375
1150 1490 369 373
1151 1719 369 370
1152 1720 369 371
1153 1721 369 372
1154 1669 366 368
1155 1672 366 367
1156 1674 366 369
1157 1675 366 370
1158 1491 370 373
1159 1722 370 371
1160 1723 370 372
1161 1724 370 374
1162 1664 364 365
1163 1665 364 366
1164 1667 364 368
1165 1670 364 367
1166 1493 372 373
1167 1726 372 374
1168 1712 367 369
1169 1713 367 370
1170 1714 367 371
1171 1715 367 383
1172 1716 367 384
1173 1717 367 387
1174 1718 367 368
1175 1492 371 373
1176 706 371 372
1177 1725 371 374
1178 1727 371 380
1179 1728 371 381
1180 1677 368 369
1181 1678 368 370
1182 1679 368 371
1183 1307 368 372
1184 1680 368 384
1185 1543 380 381
1186 1871 380 382
1187 1850 384 385
1188 1851 384 386
1189 1852 384 387
1190 1867 384 388
1191 1856 381 383
1192 1858 381 384
1193 1860 381 385
1194 1872 381 382
1195 211 144 145
1196 216 144 146
1197 686 36 38
1198 675 36 37
1199 759 36 39
1200 693 35 38
1201 757 35 36
1202 758 35 37
1203 979 35 39
1204 752 33 36
1205 754 33 37
1206 766 33 34
1207 775 33 35
1208 756 32 36
1209 772 32 33
1210 773 32 34
1211 833 32 35
1212 110 16 19
1213 119 16 17
1214 120 16 18
1215 124 16 99
1216 402 102 106
1217 412 102 103
1218 413 102 104
1219 414 102 105
1220 767 29 30
1221 769 29 31
1222 771 29 33
1223 830 29 32
1224 258 23 24
1225 263 23 25
1226 764 31 33
1227 765 31 34
1228 770 31 32
1229 774 31 35
1230 259 21 23
1231 261 21 24
1232 269 21 22
1233 260 22 23
1234 262 22 24
1235 253 99 102
1236 255 99 100
1237 256 99 101
1238 257 99 103
1239 245 96 99
1240 246 96 97
1241 247 96 98
1242 254 96 100
1243 249 97 99
1244 417 97 100
1245 419 97 101
1246 457 97 98
1247 264 24 25
1248 265 24 26
1249 266 24 99
1250 267 24 102
1251 268 24 98
1252 250 98 99
1253 418 98 100
1254 420 98 101
1255 451 98 102
1256 423 30 101
1257 453 30 102
1258 761 30 31
1259 762 30 33
1260 763 30 34
1261 768 30 32
1262 452 25 102
1263 506 25 26
1264 507 25 29
1265 508 25 27
1266 509 25 98
1267 510 25 30
1268 466 27 98
1269 535 27 90
1270 776 27 30
1271 778 27 31
1272 831 27 29
1273 834 27 28
1274 463 26 98
1275 511 26 27
1276 512 26 28
1277 513 26 29
1278 514 26 30
1279 777 28 30
1280 779 28 31
1281 136 28 29
1282 832 28 32
1283 272 90 92
1284 464 90 95
1285 470 90 93
1286 473 90 94
1287 524 90 91
1288 252 94 96
1289 459 94 95
1290 461 94 97
1291 462 94 98
1292 37 95 96
1293 248 95 99
1294 455 95 97
1295 456 95 98
1296 515 87 88
1297 516 87 89
1298 517 87 90
1299 518 87 91
1300 271 89 92
1301 469 89 93
1302 472 89 94
1303 522 89 90
1304 523 89 91
1305 273 91 92
1306 465 91 95
1307 471 91 93
1308 474 91 94
1309 251 93 96
1310 458 93 95
1311 460 93 97
1312 467 93 94
1313 475 93 213
1314 270 88 92
1315 468 88 93
1316 519 88 89
1317 520 88 90
1318 521 88 91
1319 274 92 93
1320 275 92 94
1321 276 92 95
1322 1744 522 523
1323 1745 522 524
1324 1511 523 526
1325 1746 523 524
1326 1747 523 525
1327 1512 524 526
1328 1759 524 525
1329 1502 526 528
1330 1503 526 529
1331 1507 526 527
1332 1752 375 376
1333 1753 375 377
1334 1754 377 525
1335 1755 377 379
1336 1757 377 378
1337 1758 377 380
1338 1509 376 526
1339 1750 376 377
1340 596 376 525
1341 1756 376 378
1342 1510 525 526
1343 1513 525 527
1344 1875 378 380
1345 1876 378 379
1346 35 379 380
1347 1873 379 381
1348 1874 379 382
1349 891 263 264
1350 892 263 265
1351 893 263 266
1352 894 263 267
1353 880 260 261
1354 881 260 262
1355 883 260 263
1356 884 260 264
1357 887 262 263
1358 888 262 264
1359 889 262 265
1360 890 262 266
1361 882 261 262
1362 885 261 263
1363 886 261 264
1364 647 261 265
1365 573 256 257
1366 574 256 258
1367 575 256 259
1368 587 256 264
1369 594 256 260
1370 595 256 261
1371 576 257 258
1372 577 257 259
1373 596 257 260
1374 280 293 295
1375 282 293 296
1376 562 293 294
1377 895 264 265
1378 896 264 266
1379 897 264 267
1380 898 264 268
1381 564 259 292
1382 565 259 293
1383 588 259 263
1384 589 259 264
1385 598 259 260
1386 599 259 261
1387 281 294 295
1388 283 294 296
1389 63 265 266
1390 1012 265 267
1391 1013 265 268
1392 1014 265 269
1393 135 296 298
1394 279 296 297
1395 134 295 298
1396 277 295 296
1397 278 295 297
1398 560 292 293
1399 561 292 294
1400 569 255 256
1401 570 255 257
1402 571 255 258
1403 572 255 259
1404 586 255 264
1405 593 255 260
1406 1015 266 267
1407 1016 266 268
1408 1017 266 269
1409 1024 266 270
1410 2063 444 445
1411 1962 314 397
1412 1971 314 417
1413 1972 314 317
1414 1973 314 316
1415 1974 314 315
1416 563 258 292
1417 578 258 259
1418 597 258 260
1419 1921 410 412
1420 1922 410 413
1421 1923 410 414
1422 891 410 411
1423 2064 441 442
1424 2065 441 443
1425 2066 441 444
1426 2067 441 445
1427 2006 439 440
1428 2071 439 442
1429 2072 439 441
1430 173 186 188
1431 284 186 187
1432 2011 411 412
1433 2012 411 413
1434 318 411 414
1435 2013 411 415
1436 2020 414 415
1437 953 414 416
1438 2022 414 417
1439 2027 414 418
1440 2014 412 413
1441 2015 412 414
1442 2016 412 415
1443 331 412 416
1444 728 415 416
1445 2023 415 417
1446 2028 415 418
1447 2029 415 419
1448 2074 437 438
1449 2075 437 439
1450 2024 416 417
1451 2025 416 436
1452 2026 416 437
1453 2030 416 418
1454 2019 416 419
1455 2031 416 420
1456 2076 436 437
1457 2081 436 438
1458 2037 417 418
1459 2038 417 419
1460 2039 417 420
1461 2040 417 421
1462 2077 419 436
1463 2086 419 420
1464 2087 419 421
1465 2088 419 422
1466 2094 419 423
1467 2082 418 419
1468 2083 418 420
1469 2084 418 421
1470 2085 418 422
1471 2078 420 436
1472 412 420 421
1473 2089 420 422
1474 2091 420 424
1475 2095 420 423
1476 2100 420 435
1477 2017 413 414
1478 2018 413 415
1479 2019 413 416
1480 2021 413 417
1481 2073 438 439
1482 2003 440 442
1483 2004 440 443
1484 2005 440 444
1485 1153 440 441
1486 2080 435 436
1487 1786 435 437
1488 2090 421 422
1489 2092 421 424
1490 2096 421 423
1491 2098 421 425
1492 1895 399 403
1493 1927 399 400
1494 1928 399 401
1495 1929 399 402
1496 1935 397 399
1497 1937 397 400
1498 1938 397 401
1499 1977 397 398
1500 2061 443 444
1501 2062 443 445
1502 237 409 410
1503 1890 409 412
1504 1891 409 413
1505 1892 409 411
1506 1896 401 403
1507 1917 401 405
1508 1784 401 402
1509 1932 401 404
1510 1879 406 409
1511 1881 406 407
1512 1885 406 408
1513 2058 442 443
1514 2059 442 444
1515 2060 442 445
1516 2068 442 446
1517 2069 442 447
1518 1764 336 339
1519 1765 336 337
1520 1766 336 338
1521 173 336 340
1522 1883 405 406
1523 1884 405 409
1524 1916 405 410
1525 1920 405 413
1526 1925 405 407
1527 507 405 408
1528 1880 403 406
1529 1893 403 407
1530 1898 403 404
1531 1924 403 405
1532 1772 332 336
1533 1777 332 337
1534 1797 332 333
1535 386 332 335
1536 1894 332 403
1537 1905 332 334
1538 1886 408 409
1539 1926 408 410
1540 2002 408 440
1541 2007 408 412
1542 2008 408 413
1543 2009 408 438
1544 2010 408 439
1545 773 400 403
1546 387 400 401
1547 1930 400 402
1548 1931 400 404
1549 1888 404 406
1550 1889 404 409
1551 1899 404 407
1552 1919 404 405
1553 1942 404 413
1554 1944 404 408
1555 1907 328 330
1556 1910 328 331
1557 1911 328 332
1558 1933 328 399
1559 1934 328 400
1560 1948 328 329
1561 1882 407 409
1562 1686 407 408
1563 1796 331 333
1564 1877 331 335
1565 1903 331 332
1566 1904 331 334
1567 1906 327 330
1568 1909 327 331
1569 1947 327 328
1570 673 327 329
1571 1771 335 336
1572 1776 335 337
1573 1799 329 333
1574 1908 329 330
1575 1023 329 331
1576 1912 329 332
1577 1773 334 336
1578 1778 334 337
1579 1878 334 335
1580 1795 330 333
1581 1900 330 331
1582 1901 330 332
1583 1902 330 334
1584 1770 333 336
1585 1775 333 337
1586 1798 333 334
1587 1800 333 335
1588 1526 337 341
1589 1767 337 339
1590 1774 337 338
1591 1793 337 340
1592 1522 338 342
1593 1527 338 341
1594 1768 338 339
1595 1794 338 340
1596 976 40 41
1597 977 40 42
1598 978 40 43
1599 981 40 44
1600 721 42 56
1601 935 42 44
1602 983 42 43
1603 984 42 152
1604 986 42 150
1605 936 43 44
1606 937 43 45
1607 985 43 152
1608 987 43 150
1609 642 44 47
1610 924 44 45
1611 925 44 46
1612 926 44 157
1613 930 44 156
1614 643 45 47
1615 927 45 46
1616 928 45 157
1617 931 45 156
1618 938 45 158
1619 939 45 159
1620 644 46 47
1621 646 46 48
1622 929 46 157
1623 989 151 152
1624 990 151 153
1625 1003 150 151
1626 1004 150 152
1627 699 56 57
1628 700 56 58
1629 701 56 59
1630 702 56 60
1631 714 56 152
1632 708 59 60
1633 711 59 61
1634 717 59 62
1635 718 59 63
1636 629 47 48
1637 630 47 49
1638 631 47 52
1639 632 47 53
1640 645 47 157
1641 651 47 199
1642 567 291 292
1643 568 291 293
1644 307 200 201
1645 355 200 202
1646 381 200 204
1647 601 200 253
1648 603 200 203
1649 604 200 256
1650 605 200 257
1651 908 159 160
1652 372 203 204
1653 373 203 205
1654 375 203 206
1655 654 203 207
1656 659 203 253
1657 379 57 206
1658 658 57 203
1659 703 57 58
1660 704 57 59
1661 705 57 60
1662 709 57 61
1663 902 158 159
1664 907 158 160
1665 940 157 158
1666 941 157 159
1667 1043 160 161
1668 1044 160 162
1669 579 253 255
1670 581 253 256
1671 583 253 257
1672 606 253 254
1673 591 252 255
1674 592 252 256
1675 612 252 253
1676 613 252 254
1677 903 155 158
1678 905 155 159
1679 932 155 157
1680 944 155 156
1681 949 155 161
1682 951 155 162
1683 952 155 160
1684 614 249 253
1685 625 249 251
1686 663 249 250
1687 909 249 252
1688 904 156 158
1689 906 156 159
1690 933 156 157
1691 950 156 161
1692 953 156 160
1693 1047 161 162
1694 480 161 163
1695 1048 161 164
1696 1049 161 165
1697 942 154 155
1698 943 154 156
1699 946 153 154
1700 947 153 155
1701 948 153 156
1702 945 152 154
1703 988 152 153
1704 712 60 61
1705 713 60 64
1706 715 60 152
1707 719 60 62
1708 720 60 63
1709 722 60 154
1710 623 248 251
1711 666 248 250
1712 910 248 252
1713 956 248 249
1714 674 245 246
1715 954 245 249
1716 959 245 247
1717 960 245 248
1718 429 61 210
1719 662 61 207
1720 723 61 64
1721 724 61 62
1722 725 61 63
1723 726 61 65
1724 370 207 208
1725 433 207 209
1726 434 207 210
1727 660 207 250
1728 664 207 211
1729 356 204 205
1730 357 204 206
1731 358 204 208
1732 367 204 207
1733 368 204 250
1734 376 204 253
1735 377 204 254
1736 427 210 212
1737 428 210 213
1738 431 210 211
1739 432 210 214
1740 1050 162 163
1741 1051 162 164
1742 1052 162 165
1743 1056 162 166
1744 661 246 250
1745 675 246 247
1746 676 246 248
1747 680 246 249
1748 610 250 253
1749 611 250 254
1750 668 250 251
1751 669 250 252
1752 580 254 255
1753 582 254 256
1754 584 254 257
1755 585 254 258
1756 590 251 255
1757 607 251 253
1758 609 251 254
1759 624 251 252
1760 673 244 246
1761 598 244 245
1762 957 244 247
1763 958 244 248
1764 566 290 292
1765 877 290 291
1766 170 184 188
1767 289 184 186
1768 291 184 187
1769 295 184 185
1770 177 185 188
1771 285 185 186
1772 286 185 187
1773 622 247 251
1774 665 247 250
1775 955 247 249
1776 815 247 248
1777 2043 315 317
1778 1784 315 316
1779 2054 315 318
1780 2055 315 319
1781 678 243 246
1782 964 243 244
1783 966 243 245
1784 967 243 247
1785 435 212 213
1786 436 212 215
1787 438 212 216
1788 444 212 214
1789 221 423 424
1790 2105 423 425
1791 1981 423 431
1792 2111 423 426
1793 2093 422 424
1794 2097 422 423
1795 934 422 425
1796 2099 422 426
1797 287 182 186
1798 293 182 185
1799 319 182 183
1800 320 182 184
1801 2101 424 425
1802 2102 424 426
1803 2051 316 318
1804 2052 316 317
1805 2053 316 421
1806 2042 317 321
1807 2044 317 318
1808 2045 317 319
1809 2046 317 421
1810 169 183 188
1811 288 183 186
1812 290 183 187
1813 294 183 185
1814 321 183 184
1815 365 208 209
1816 366 208 210
1817 371 208 212
1818 378 208 211
1819 292 181 185
1820 316 181 182
1821 317 181 183
1822 318 181 184
1823 2103 425 427
1824 2104 425 426
1825 2112 426 431
1826 2120 426 427
1827 2121 426 428
1828 2122 426 430
1829 326 178 180
1830 327 178 181
1831 328 178 182
1832 616 178 179
1833 312 180 181
1834 313 180 182
1835 314 180 183
1836 315 180 184
1837 322 179 180
1838 323 179 181
1839 324 179 182
1840 325 179 183
1841 608 179 254
1842 615 179 251
1843 667 179 250
1844 330 177 180
1845 331 177 181
1846 620 177 179
1847 627 177 178
1848 619 175 179
1849 626 175 178
1850 671 175 176
1851 682 175 177
1852 683 175 247
1853 329 176 180
1854 617 176 179
1855 670 176 246
1856 672 176 177
1857 646 176 247
1858 679 176 178
1859 443 211 212
1860 445 211 213
1861 447 211 215
1862 734 211 214
1863 1085 318 319
1864 2056 318 320
1865 2057 318 321
1866 621 174 179
1867 628 174 178
1868 681 174 176
1869 684 174 175
1870 969 174 247
1871 618 173 251
1872 685 173 175
1873 913 173 174
1874 914 173 247
1875 915 173 248
1876 743 239 240
1877 748 239 241
1878 749 239 242
1879 750 239 243
1880 751 239 244
1881 968 240 244
1882 994 240 241
1883 995 240 242
1884 996 240 243
1885 2113 427 431
1886 2117 427 428
1887 2123 427 429
1888 2124 427 430
1889 1841 389 391
1890 1991 389 392
1891 1992 389 393
1892 2000 389 390
1893 1941 396 399
1894 1402 396 400
1895 1982 396 397
1896 1983 396 398
1897 1957 323 325
1898 1958 323 327
1899 1959 323 328
1900 333 323 324
1901 1995 323 396
1902 1913 326 330
1903 1949 326 327
1904 1950 326 328
1905 1951 326 329
1906 1943 322 400
1907 1984 322 397
1908 113 322 324
1909 1990 322 396
1910 2033 322 323
1911 1834 325 395
1912 1945 325 327
1913 1946 325 328
1914 1673 325 329
1915 1118 325 326
1916 1953 325 392
1917 1954 325 396
1918 1952 324 325
1919 1955 324 327
1920 1956 324 328
1921 1985 324 396
1922 1994 324 326
1923 2032 321 323
1924 441 321 322
1925 1993 319 393
1926 2049 319 320
1927 2050 319 321
1928 2047 320 321
1929 2048 320 322
1930 532 84 87
1931 533 84 88
1932 537 84 85
1933 559 84 86
1934 677 242 246
1935 963 242 244
1936 965 242 245
1937 993 242 243
1938 528 86 87
1939 529 86 88
1940 530 86 89
1941 531 86 90
1942 525 85 87
1943 526 85 88
1944 527 85 89
1945 543 85 86
1946 729 64 65
1947 730 64 66
1948 731 64 68
1949 732 64 242
1950 733 64 67
1951 727 62 64
1952 781 62 63
1953 782 62 65
1954 783 62 66
1955 728 63 64
1956 784 63 65
1957 785 63 66
1958 789 63 67
1959 788 66 68
1960 791 66 67
1961 793 66 69
1962 795 66 70
1963 800 67 68
1964 854 67 69
1965 1005 67 70
1966 1006 67 71
1967 846 70 72
1968 849 70 73
1969 991 70 71
1970 1008 70 74
1971 786 65 66
1972 787 65 68
1973 790 65 67
1974 792 65 69
1975 794 65 214
1976 847 71 72
1977 850 71 73
1978 521 71 74
1979 1009 71 75
1980 534 69 89
1981 538 69 85
1982 835 69 86
1983 838 69 72
1984 839 69 73
1985 844 69 70
1986 845 69 71
1987 796 68 69
1988 797 68 72
1989 798 68 70
1990 799 68 71
1991 858 74 76
1992 1010 74 75
1993 539 73 85
1994 842 73 76
1995 843 73 82
1996 851 73 74
1997 853 73 75
1998 962 241 244
1999 991 241 242
2000 992 241 243
2001 840 72 73
2002 841 72 76
2003 848 72 74
2004 852 72 75
2005 856 75 76
2006 1011 75 77
2007 541 82 85
2008 557 82 84
2009 836 82 86
2010 869 82 83
2011 437 213 215
2012 439 213 216
2013 440 213 217
2014 446 213 214
2015 855 76 78
2016 857 76 77
2017 875 76 82
2018 476 216 217
2019 477 216 219
2020 478 216 220
2021 482 216 218
2022 489 220 222
2023 490 220 223
2024 493 220 221
2025 494 220 224
2026 441 215 216
2027 442 215 217
2028 449 215 219
2029 450 215 218
2030 479 217 219
2031 480 217 220
2032 481 217 221
2033 483 217 218
2034 546 224 225
2035 547 224 226
2036 486 219 220
2037 487 219 222
2038 488 219 223
2039 492 219 221
2040 495 221 222
2041 498 221 223
2042 544 221 224
2043 545 221 225
2044 448 214 215
2045 484 214 216
2046 485 214 217
2047 735 214 218
2048 501 218 219
2049 502 218 220
2050 503 218 222
2051 551 218 221
2052 801 218 234
2053 802 218 235
2054 736 238 239
2055 741 238 240
2056 718 238 241
2057 746 238 242
2058 747 238 243
2059 744 237 238
2060 745 237 239
2061 997 237 241
2062 998 237 242
2063 1002 237 240
2064 737 234 238
2065 803 234 235
2066 809 234 237
2067 813 234 236
2068 738 235 238
2069 739 235 239
2070 811 235 237
2071 814 235 236
2072 808 233 234
2073 810 233 235
2074 1000 233 236
2075 1007 233 237
2076 491 222 223
2077 496 222 224
2078 497 222 225
2079 504 222 234
2080 505 222 231
2081 812 230 234
2082 825 230 231
2083 826 230 232
2084 860 230 233
2085 804 231 234
2086 806 231 235
2087 258 231 232
2088 828 231 233
2089 805 232 234
2090 807 232 235
2091 150 232 233
2092 829 232 236
2093 548 225 226
2094 549 225 227
2095 550 225 230
2096 552 225 231
2097 499 223 224
2098 500 223 225
2099 820 227 228
2100 822 227 229
2101 824 227 231
2102 859 227 230
2103 553 226 227
2104 554 226 228
2105 815 228 229
2106 816 228 231
2107 817 228 232
2108 821 228 230
2109 740 236 238
2110 742 236 239
2111 999 236 240
2112 1001 236 237
2113 818 229 231
2114 819 229 232
2115 823 229 230
2116 827 229 233
2117 536 83 87
2118 542 83 85
2119 558 83 84
2120 837 83 86
2121 412 79 80
2122 861 79 81
2123 862 79 82
2124 863 79 83
2125 555 80 84
2126 864 80 81
2127 865 80 82
2128 866 80 83
2129 870 78 79
2130 871 78 80
2131 872 78 81
2132 873 78 82
2133 874 77 79
2134 876 77 78
2135 540 81 85
2136 556 81 84
2137 867 81 82
2138 868 81 83
2139 136 297 298
2140 901 267 289
2141 1018 267 268
2142 1019 267 269
2143 1021 267 271
2144 1025 267 270
2145 766 270 271
2146 1066 270 273
2147 1067 270 274
2148 1068 270 272
2149 1023 269 271
2150 1027 269 270
2151 1028 269 273
2152 1030 269 272
2153 611 271 287
2154 1031 271 286
2155 1035 271 273
2156 1036 271 274
2157 1037 271 272
2158 1038 271 275
2159 1020 268 269
2160 1022 268 271
2161 1026 268 270
2162 1029 268 272
2163 1040 283 285
2164 1079 283 284
2165 1041 284 285
2166 1042 284 286
2167 1033 286 287
2168 1034 286 288
2169 1032 285 287
2170 1039 285 286
2171 2079 434 436
2172 63 434 435
2173 2108 432 433
2174 2109 432 434
2175 353 433 434
2176 2107 433 435
2177 970 165 248
2178 823 165 166
2179 1061 165 167
2180 1063 165 168
2181 1069 273 274
2182 1071 273 275
2183 1072 273 276
2184 1077 273 277
2185 1074 274 275
2186 1075 274 276
2187 1076 274 282
2188 1078 274 277
2189 14 289 290
2190 878 289 291
2191 1070 272 273
2192 1073 272 274
2193 1083 272 275
2194 1084 272 276
2195 1085 275 276
2196 859 275 277
2197 1087 275 278
2198 1053 163 164
2199 1054 163 165
2200 1057 163 166
2201 1058 163 167
2202 1086 276 277
2203 1088 276 278
2204 1045 166 168
2205 1064 166 167
2206 1055 164 165
2207 1059 164 166
2208 1060 164 167
2209 1062 164 168
2210 1046 167 168
2211 1065 167 169
2212 923 168 172
2213 972 168 170
2214 576 168 169
2215 921 169 171
2216 922 169 172
2217 971 169 170
2218 1097 277 278
2219 1098 277 279
2220 1099 277 281
2221 1100 277 282
2222 879 288 290
2223 900 288 289
2224 899 287 289
2225 476 287 288
2226 916 170 173
2227 919 170 171
2228 920 170 172
2229 961 170 244
2230 2114 431 432
2231 2115 431 433
2232 2110 428 431
2233 2118 428 429
2234 2119 428 430
2235 2116 429 431
2236 2126 429 430
2237 2090 430 431
2238 2125 430 432
2239 912 172 173
2240 918 172 174
2241 911 171 173
2242 486 171 172
2243 917 171 174
2244 1081 282 283
2245 1082 282 284
2246 1080 281 283
2247 1091 281 282
2248 1092 278 280
2249 1094 278 281
2250 1095 278 282
2251 1101 278 279
2252 1093 279 280
2253 574 279 281
2254 1096 279 282
2255 1089 280 281
2256 1090 280 282
