LAMMPS data file via write_data, version 10 Dec 2025, timestep = 1000000, units = real

894 atoms
1 atom types
3449 bonds
3027 bond types

-28.581 172.686 xlo xhi
-37.234 122.39 ylo yhi
-71.479 135.067 zlo zhi

Masses

1 110

Atoms # bond

876 1 1 135.15296198232284 73.86317449294859 -46.10823577441711 0 0 0
877 1 1 135.02032707673212 70.35566078645869 -45.15954575698558 0 0 0
881 1 1 128.51584457486263 74.9874580185014 -37.03848324825561 0 0 0
880 1 1 130.04128538333487 71.55680989789467 -37.03158249308737 0 0 0
879 1 1 133.06104755902672 71.9011431520806 -39.04264034444536 0 0 0
878 1 1 132.3001806583033 70.54460192569177 -42.492945191400544 0 0 0
873 1 1 136.8288384213809 70.0802860667823 -39.19817858387658 0 0 0
874 1 1 137.7251656948208 73.1536829607962 -41.199034282699174 0 0 0
875 1 1 134.86815676111792 75.44237629968688 -42.62922685150161 0 0 0
870 1 1 132.29818277849617 70.26447615148007 -36.64931357783183 0 0 0
894 1 1 105.30890068013608 64.62928081987735 -31.79951908700595 0 0 0
889 1 1 112.78661144700854 67.21293189702764 -30.036509119056415 0 0 0
862 1 1 124.93274390796674 62.55532990921367 -29.620085905669903 0 0 0
866 1 1 128.615261441758 65.75822988616456 -33.240311373757 0 0 0
863 1 1 124.60340385088121 66.34232083651189 -29.888874547844146 0 0 0
865 1 1 129.92021018542758 64.87554173932003 -29.7623118911483 0 0 0
869 1 1 133.93599975105468 67.15761350316822 -34.79335094854705 0 0 0
888 1 1 114.39421960035813 70.56468616710474 -28.983230091132196 0 0 0
886 1 1 119.90567068334536 72.78614198967573 -27.470952864127028 0 0 0
882 1 1 128.2295149477263 76.79360026390138 -33.565684388520886 0 0 0
883 1 1 129.27678403848742 74.99690509011829 -30.3031108496709 0 0 0
884 1 1 126.08068440385304 74.70586629389368 -28.18925392545652 0 0 0
868 1 1 133.174151847183 68.63201114485278 -31.45752992393154 0 0 0
867 1 1 129.52155316204136 69.2739124061708 -32.43219241886143 0 0 0
871 1 1 134.13205696056966 72.81714733176914 -35.074498578049486 0 0 0
872 1 1 137.4807307746503 70.84526612206331 -35.38499641538214 0 0 0
890 1 1 111.24939518166538 66.00004081213243 -26.802900056570245 0 0 0
891 1 1 108.74657424510697 69.07530121750561 -26.501242358748627 0 0 0
856 1 1 116.98484189752652 62.96530744258901 -22.689830120512685 0 0 0
855 1 1 115.78563085797657 65.97366316257175 -24.856986727958034 0 0 0
854 1 1 114.29452468561529 68.35029681673484 -22.341676401225353 0 0 0
859 1 1 120.2433345660422 62.94536339203527 -27.864781385522782 0 0 0
858 1 1 121.28273878788461 60.27179373503458 -25.310434924617994 0 0 0
861 1 1 125.56803073656422 63.15524975331014 -25.857053045842708 0 0 0
860 1 1 122.35543462008448 65.52827919519294 -25.804952626588978 0 0 0
857 1 1 120.64598667361794 62.45812685724203 -22.090556253989906 0 0 0
864 1 1 127.71053133014034 67.18270357879199 -27.865046304865544 0 0 0
760 1 1 133.0024460839155 65.9958258993904 -23.6604713705149 0 0 0
759 1 1 136.7062399845872 65.93290271758599 -22.483477477902294 0 0 0
756 1 1 130.60531241263112 61.4921293381257 -19.860234629625054 0 0 0
893 1 1 105.16483647979906 68.1381806183506 -30.58877698667263 0 0 0
892 1 1 105.01682774159087 68.73917209089721 -26.7887771611666 0 0 0
887 1 1 118.05719672791889 69.6319141416414 -28.076800315521062 0 0 0
851 1 1 118.79207446432584 69.74453756775263 -21.67673555930856 0 0 0
885 1 1 123.65295334510797 72.17532347156572 -27.059900056858485 0 0 0
764 1 1 132.48981546504004 72.77189667438539 -26.33098796168347 0 0 0
763 1 1 134.9944141725393 69.82505594486132 -26.69194052401844 0 0 0
762 1 1 136.2430923938743 70.48612675488454 -23.23279226752291 0 0 0
761 1 1 132.8354808520549 69.501979081221 -21.958332697966505 0 0 0
765 1 1 133.4130567239172 76.2259460696245 -27.766252780435284 0 0 0
770 1 1 124.57858555310196 80.52669638824489 -22.07516035914409 0 0 0
769 1 1 127.19172130716709 77.82567661585125 -23.250842182797275 0 0 0
768 1 1 128.9950720626651 78.40136700951827 -26.627077094716274 0 0 0
766 1 1 134.00915171763967 78.4644270504917 -24.63508219770467 0 0 0
767 1 1 131.58356428421726 81.01500085917486 -25.62663595105433 0 0 0
642 1 1 127.35654101159136 54.13554746176893 -11.465906711122463 0 0 0
641 1 1 130.5249515689956 55.76479938201965 -12.838282864365643 0 0 0
852 1 1 118.62510126590857 66.16065264783511 -20.14040670954821 0 0 0
796 1 1 118.51892360213247 65.06533809402673 -13.299672670336081 0 0 0
853 1 1 114.99255536880635 66.91091460694881 -18.892640828998086 0 0 0
754 1 1 125.7786699120626 60.37155382032833 -16.320840317096458 0 0 0
753 1 1 127.76308936322994 58.94628566697671 -13.298888850411046 0 0 0
755 1 1 128.34180181098247 58.726585634994954 -18.47496645999324 0 0 0
757 1 1 133.94565752157962 62.92066703490874 -19.123665881869346 0 0 0
751 1 1 129.78150664626062 63.7074699398097 -15.3956972131297 0 0 0
752 1 1 131.01317961654374 60.034167533306785 -14.995481968514023 0 0 0
750 1 1 131.1977803365218 65.0220743562732 -12.046762890805253 0 0 0
758 1 1 135.56855131704808 66.44995544119978 -18.881604304752322 0 0 0
749 1 1 135.0258131048855 63.43089818336634 -12.056396212569595 0 0 0
782 1 1 110.40861718114974 74.72732011645857 -17.67396610038441 0 0 0
784 1 1 109.23029838028079 75.19567163046723 -11.828930615544294 0 0 0
783 1 1 110.70881498819718 72.89649111747121 -14.390418378119426 0 0 0
850 1 1 118.10917040408756 71.3644584377152 -18.265874013558907 0 0 0
779 1 1 114.71715040492145 76.21373566096119 -15.17526562174206 0 0 0
847 1 1 122.4784137635989 73.52821419841419 -19.44115054686652 0 0 0
848 1 1 123.2950872520276 69.8696421309109 -19.30170695267336 0 0 0
849 1 1 120.64448645768137 69.23144406619454 -16.68716972071352 0 0 0
845 1 1 126.1702692266606 72.24563831015833 -15.58227130573115 0 0 0
846 1 1 122.8238917697281 73.83218921804391 -15.62263815676257 0 0 0
844 1 1 128.11962237371043 73.75897618623601 -18.50297265305968 0 0 0
842 1 1 127.674717978997 76.38810349642718 -13.914822180279083 0 0 0
843 1 1 126.8236098005913 77.29273880328684 -17.480275066343467 0 0 0
841 1 1 131.1050382751226 75.19027985032093 -14.931965971657364 0 0 0
781 1 1 110.31147717157259 78.5981616211395 -17.03826196399464 0 0 0
778 1 1 115.15076795362005 78.50468700049863 -18.224860611456908 0 0 0
780 1 1 112.10416800158443 78.4366788066809 -13.805809534809004 0 0 0
777 1 1 115.50519325668239 81.49605749233325 -15.687190811055684 0 0 0
776 1 1 118.23768098525302 79.86946210730642 -13.769212612426116 0 0 0
774 1 1 119.59061743349807 82.64341375543601 -18.38596212048566 0 0 0
775 1 1 119.62263801869793 78.94627351090294 -17.31290334010344 0 0 0
771 1 1 124.57361314455446 82.67594286232071 -18.97638443037052 0 0 0
772 1 1 123.91222098796288 81.08791073301512 -15.637160127092496 0 0 0
773 1 1 121.33108962979604 83.91137858721062 -15.124874816399123 0 0 0
840 1 1 132.1598486550606 78.6187211564748 -16.6790843967622 0 0 0
839 1 1 130.67535532771737 80.32043458612618 -13.752704600925194 0 0 0
836 1 1 133.4755512637727 84.78644621035119 -14.752861326292809 0 0 0
837 1 1 135.97479114532646 82.12950891635033 -13.779521479033129 0 0 0
835 1 1 130.04773555724302 84.95665053726891 -12.753469373472164 0 0 0
838 1 1 133.91502146808216 79.89963159100986 -11.664647998874871 0 0 0
644 1 1 124.27793189006425 54.749880559426416 -6.96681649358998 0 0 0
643 1 1 124.34666527330724 56.45304183755339 -10.402536732243057 0 0 0
645 1 1 121.794410241203 56.368420938989345 -4.447017079288493 0 0 0
640 1 1 132.1942068922706 54.920127446862644 -9.425399808411179 0 0 0
639 1 1 133.86974753016415 57.90869458208016 -7.529330537745946 0 0 0
637 1 1 131.1074839604573 54.14516489907984 -4.693157639954999 0 0 0
636 1 1 134.8230265070855 53.83188015780715 -4.432245772667374 0 0 0
638 1 1 131.45886327218412 58.10392429826115 -4.706826556902024 0 0 0
791 1 1 108.83152723327001 66.13922740415217 -6.634017371625909 0 0 0
792 1 1 110.78863575572717 63.270850907215056 -8.201451856767425 0 0 0
790 1 1 110.73431838673763 68.24201123733386 -3.7361285099077564 0 0 0
795 1 1 118.79070063567364 61.680015996502746 -11.587274026498788 0 0 0
794 1 1 115.00654803431142 60.917337398529014 -10.902070728376055 0 0 0
793 1 1 114.29153932884518 61.88216932218425 -7.164068363880131 0 0 0
798 1 1 117.64695239962488 65.7856682177577 -8.039992015554134 0 0 0
797 1 1 115.7803231443656 66.57477353227877 -11.091178499772484 0 0 0
646 1 1 120.56666050272707 60.0015642619444 -4.906085462955655 0 0 0
649 1 1 124.63894179618728 62.27763251757126 -6.247463525538949 0 0 0
799 1 1 120.95988645596402 67.04862352325628 -9.71585268649594 0 0 0
650 1 1 124.06921478117825 64.98652994982866 -3.8191005754399034 0 0 0
653 1 1 127.98486231728813 67.54751603157726 -5.722734911688832 0 0 0
648 1 1 125.66653022992205 59.84076090344693 -3.417141748308832 0 0 0
652 1 1 129.33071930952602 64.13133688592569 -5.061993709055262 0 0 0
748 1 1 135.56225953162055 63.793640228485785 -8.334633163337003 0 0 0
747 1 1 138.14794460372804 66.10755028770882 -6.71134779631054 0 0 0
746 1 1 138.81447377283178 63.653508835354096 -3.775898705329311 0 0 0
785 1 1 107.53475944121654 72.30725938399982 -10.060554218077556 0 0 0
789 1 1 108.38143822737408 71.13901009281471 -4.610385111665656 0 0 0
788 1 1 109.18856746718836 74.84139452593766 -5.578055983649559 0 0 0
786 1 1 110.88309787750399 70.63559077739431 -9.202838269781056 0 0 0
801 1 1 118.36847898164915 71.54514971923528 -7.36485529079133 0 0 0
787 1 1 112.01988432261382 74.03781413087593 -8.04052921035713 0 0 0
800 1 1 119.42821307182187 70.42873288366263 -10.901858756853283 0 0 0
802 1 1 121.97758445693844 70.63145921115931 -6.190419606143137 0 0 0
803 1 1 123.43925686253044 72.81585717762204 -8.846032876922447 0 0 0
806 1 1 125.94653939511552 75.17531038721707 -5.196533667025424 0 0 0
805 1 1 122.28635246464441 75.26985577974564 -4.273468134617364 0 0 0
804 1 1 121.10277491954577 75.81894547109644 -7.820702394861343 0 0 0
656 1 1 132.8458030315848 69.9731081937785 -5.2271374234536525 0 0 0
660 1 1 134.44976815300447 76.43487799464751 -4.6617932644170645 0 0 0
657 1 1 130.71550685665588 72.85477404084104 -3.7204355696194797 0 0 0
659 1 1 135.75248438090054 73.24794650599468 -3.2393820415375907 0 0 0
808 1 1 123.1322645328135 79.98742284422728 -4.263836334457838 0 0 0
807 1 1 125.4314916636616 78.51459883285844 -7.1976628176455755 0 0 0
811 1 1 126.01969794387585 83.93631798100292 -4.246338079657918 0 0 0
810 1 1 128.40303501151132 80.91410606848015 -3.7369222114510627 0 0 0
834 1 1 131.92523020578938 83.82717501707434 -9.651549152351594 0 0 0
664 1 1 136.74454476078256 81.59316919272725 -3.422938874515616 0 0 0
667 1 1 141.24114791245427 84.27208827922924 -3.8224992420767254 0 0 0
663 1 1 138.75242486280547 78.44506054299305 -3.5515998987195068 0 0 0
832 1 1 132.20582208360517 89.3488034227478 -10.722257096368605 0 0 0
831 1 1 130.6112784946082 88.48361181977052 -7.2912604429665 0 0 0
830 1 1 134.07742332201204 88.69471227576506 -5.785034052635523 0 0 0
833 1 1 134.70326861363586 86.43056216867281 -9.94907487550848 0 0 0
829 1 1 134.66639743814943 92.08199905720288 -7.376616663378355 0 0 0
828 1 1 131.2649386651024 93.78322565065983 -6.763252552146552 0 0 0
671 1 1 143.61964774214937 89.6112331437667 -4.3922185373256255 0 0 0
827 1 1 132.5565873717239 95.58861196225014 -3.7199320510355025 0 0 0
826 1 1 134.96401706483215 98.07775144110938 -5.333579974266823 0 0 0
704 1 1 123.40800382876031 56.1188992912 3.407451386544465 0 0 0
703 1 1 121.08011305768179 58.20968546768277 5.519303859192236 0 0 0
634 1 1 132.08437635161008 55.60091467657699 0.6494542366594324 0 0 0
635 1 1 135.0984416735586 56.37295339884001 -1.6614988793159207 0 0 0
633 1 1 133.26395871016524 54.53012376692346 4.046983671258942 0 0 0
632 1 1 136.38801863939003 56.36408113501801 4.7072936517780875 0 0 0
631 1 1 136.24265523384517 58.97062580217225 1.9827095101090642 0 0 0
606 1 1 114.44891746510899 63.843307394357964 3.388709593484855 0 0 0
605 1 1 116.64483150856876 64.04462224252887 0.39786582621214467 0 0 0
604 1 1 114.17953754205818 66.06909068710947 -1.5578868347070545 0 0 0
603 1 1 113.90970709740996 68.29378995163111 1.4631088562238896 0 0 0
647 1 1 122.38890772846435 60.58749014247525 -1.4743442302234764 0 0 0
651 1 1 127.3748730277531 64.18205254451489 -1.8381603029545501 0 0 0
700 1 1 123.90877313794732 62.31283827767366 3.666406980430432 0 0 0
697 1 1 127.71881756731689 65.88787618828816 4.866764279749747 0 0 0
701 1 1 126.48644095382677 59.957989886184954 5.076140207423268 0 0 0
696 1 1 124.59341661613693 68.2125456128205 4.580194461970923 0 0 0
630 1 1 133.0382470667325 60.47433385411657 3.2111862675913523 0 0 0
627 1 1 135.4739565804245 64.72884054698089 4.630338227445176 0 0 0
655 1 1 132.2858517564591 67.92191339400024 -1.9647730935249017 0 0 0
628 1 1 137.40978857301414 61.97381031996469 6.3317009296032385 0 0 0
598 1 1 113.38907339483893 77.0600149219684 -4.145400502920409 0 0 0
602 1 1 117.60271764737212 69.64321776664161 1.5248057636639396 0 0 0
601 1 1 117.68714405066657 73.36494669471793 1.6819855730864404 0 0 0
600 1 1 113.92071862691255 74.37843877398203 1.8418551692555665 0 0 0
599 1 1 112.01152117187905 74.65948552268141 -1.4234305362647033 0 0 0
693 1 1 127.97443068677207 71.96555713441204 5.309275801255263 0 0 0
654 1 1 128.55638341948782 68.62797850410216 -2.123039974558096 0 0 0
658 1 1 133.03713134971883 72.8576245966477 -0.5951613353726829 0 0 0
662 1 1 137.55407218148613 77.23093507719416 -0.2392633750828505 0 0 0
597 1 1 116.51898111504156 79.3529159091829 -3.593370949748167 0 0 0
809 1 1 125.72982768818801 79.29244143382866 -1.5896450542490448 0 0 0
812 1 1 125.24275061112115 84.00435340771034 -0.5739560106396127 0 0 0
661 1 1 133.72877630398054 78.12654980060134 -1.274152841592261 0 0 0
813 1 1 128.88628532977393 84.19962801430297 0.5622799921934553 0 0 0
681 1 1 136.72153423199737 85.14365496451953 4.9101125855020245 0 0 0
685 1 1 134.0262630047002 79.69972007514436 5.648942461952811 0 0 0
665 1 1 137.9260202726001 82.14480710658046 0.15756453323275474 0 0 0
666 1 1 141.5176554153943 81.93775338810129 -0.8648169077258194 0 0 0
682 1 1 138.64486312888766 81.75561632184852 5.438114750843457 0 0 0
815 1 1 126.99507511016517 88.82862658294333 -1.612413616339111 0 0 0
816 1 1 128.00493876404641 88.55793460453748 1.9849733965481962 0 0 0
819 1 1 127.6918757437328 93.70720851113498 1.6394498306858696 0 0 0
814 1 1 129.97842998702816 86.51723406427718 -2.411433040337226 0 0 0
818 1 1 130.08115997815642 92.07310687070284 -0.8504089663632759 0 0 0
817 1 1 131.59976381555688 89.67829851904332 1.3567442792972426 0 0 0
820 1 1 129.6013824311384 93.35481762259879 4.862059222621929 0 0 0
821 1 1 133.11097524605606 94.48191943706018 3.7782310503840884 0 0 0
669 1 1 143.2563520192143 86.65033910609213 0.6717056706248907 0 0 0
668 1 1 139.97774173910065 86.92324461373116 -1.4421735139262288 0 0 0
672 1 1 142.8879297171725 92.23979325370999 -1.5450122124006216 0 0 0
670 1 1 145.49312787702848 86.98540851009791 -2.3850905521813894 0 0 0
673 1 1 145.96748873357697 94.12392243701154 -0.18097039989416 0 0 0
675 1 1 141.8448848797154 94.50651773915213 4.4005068969662275 0 0 0
678 1 1 143.49249494744583 88.37875581393786 5.5889609565978295 0 0 0
825 1 1 137.12316166525883 100.05769180892628 -2.912846482127571 0 0 0
822 1 1 133.23917008967155 98.23151443069166 2.6717027061484218 0 0 0
823 1 1 136.97792397299335 98.59605865728983 3.126488369329163 0 0 0
824 1 1 137.6099596470094 97.28388160228184 -0.5304237315481658 0 0 0
674 1 1 144.14131730092407 96.68128420302588 1.8538437033724786 0 0 0
738 1 1 125.08337531523465 49.135843061380456 12.296163602385484 0 0 0
739 1 1 121.49738061891462 50.06222920667979 11.32822658270958 0 0 0
707 1 1 118.90546261665459 54.23779532295551 7.014893873667097 0 0 0
710 1 1 116.7310887004967 55.56887369501958 11.826583438097094 0 0 0
709 1 1 113.90168770591285 55.983215827889374 9.237485929089067 0 0 0
708 1 1 116.52463049857138 57.25557934256499 6.563138454191124 0 0 0
711 1 1 118.0999699917145 58.97040990194671 11.201759336320135 0 0 0
706 1 1 122.21308359334921 54.02918033761632 8.976969450852192 0 0 0
705 1 1 125.05719106623283 54.39930927625655 6.528605090994492 0 0 0
702 1 1 124.00314866457454 59.08462899272983 7.879462290009131 0 0 0
712 1 1 114.7183467198772 60.54791131376148 11.761707827927234 0 0 0
607 1 1 115.32090687630524 66.5498560795226 5.5923291658494625 0 0 0
699 1 1 123.06524878409392 63.71857458276651 6.967932671022704 0 0 0
698 1 1 126.72794166170688 64.48060000851378 8.307971218991343 0 0 0
620 1 1 128.03422382607596 67.79127821092823 14.109359413637325 0 0 0
629 1 1 133.96089652329897 60.09333007037219 6.988901429679128 0 0 0
626 1 1 133.06841348821638 64.5645637099722 7.68741588600827 0 0 0
625 1 1 135.9599189887039 65.04906898066959 10.08529005095478 0 0 0
621 1 1 131.71128254168454 67.07455206216966 13.744571850210889 0 0 0
624 1 1 137.71696229145513 68.01207391835842 8.268401618124413 0 0 0
608 1 1 113.84444101659794 69.88177297387404 6.836907354143423 0 0 0
610 1 1 114.35600193550584 72.57108423317933 11.397028043026015 0 0 0
611 1 1 114.8397877461732 68.78058047489594 12.30083666969196 0 0 0
609 1 1 116.57457514503294 72.14253764605178 8.225613151858349 0 0 0
612 1 1 118.56136060323836 69.11642263716641 11.666373325456131 0 0 0
613 1 1 118.87195980424482 72.25426523228134 13.844624238051143 0 0 0
695 1 1 124.36591764031559 69.25188081931964 8.344938156536212 0 0 0
694 1 1 128.31690646089612 69.93986577763218 8.538840700893092 0 0 0
692 1 1 125.26757435978672 74.08603836155804 7.013258525983683 0 0 0
691 1 1 127.64360777716068 74.90323829751088 9.839461404136879 0 0 0
622 1 1 133.9252459328458 69.69734345650471 11.945778428894721 0 0 0
623 1 1 134.1786303190318 69.67670753444122 8.041149946328074 0 0 0
690 1 1 130.61014684109273 75.50065017906144 7.640531262115932 0 0 0
686 1 1 135.2448965303467 77.19909025519537 8.404392225048563 0 0 0
689 1 1 129.5994967228683 78.61038303022227 5.822909026322175 0 0 0
688 1 1 129.67417717348937 80.3315818289871 9.392779328618742 0 0 0
687 1 1 132.6540352592341 78.60708752852378 10.959938412709677 0 0 0
684 1 1 133.93184985369567 82.76859879579993 7.99546117602484 0 0 0
683 1 1 137.38968850216645 81.95208918371375 9.149219523710867 0 0 0
679 1 1 141.7957765166321 85.63991200496908 7.456437049585287 0 0 0
680 1 1 138.3078603327915 86.94929921310424 7.714582755844874 0 0 0
677 1 1 142.38122597233368 90.9952454029442 8.191475049222268 0 0 0
676 1 1 143.43851512700863 94.59614052970103 7.901699243716016 0 0 0
745 1 1 105.70061671025957 47.77424635037838 18.835554898978213 0 0 0
744 1 1 108.5237296817447 49.14891374376569 16.297368809701467 0 0 0
743 1 1 111.89168867120614 50.17246010677559 17.93804944304934 0 0 0
741 1 1 116.96829198175038 49.5690645326995 14.094846005360953 0 0 0
740 1 1 120.5981332345841 50.51037692857815 15.239765934124486 0 0 0
742 1 1 115.76560119188066 49.27623232563671 17.80732298221772 0 0 0
713 1 1 114.28061983418856 58.566309709013304 14.852771519499733 0 0 0
714 1 1 117.62316128292325 59.68365547497878 16.31206310574546 0 0 0
734 1 1 119.82257891041826 56.7335983283048 21.566342257206134 0 0 0
735 1 1 122.76591090731357 55.73779113246711 19.31994421524791 0 0 0
737 1 1 125.32016051426032 51.952314571217144 14.877624634478998 0 0 0
736 1 1 123.87919870084782 55.56407190639434 15.731255301174148 0 0 0
716 1 1 113.45329019326955 63.482760618928644 17.608931956655184 0 0 0
715 1 1 116.71942169755698 63.43035914424069 15.59509629997184 0 0 0
717 1 1 114.63146184340731 61.16615824254956 20.37080393042507 0 0 0
718 1 1 118.20543695254638 62.34233593206831 21.15217667219406 0 0 0
719 1 1 117.08289906388335 65.95098902744708 20.72092926947358 0 0 0
619 1 1 126.02596362277447 68.52428658599626 17.404810958396432 0 0 0
614 1 1 116.46584754669857 70.85809444421913 16.507267257092575 0 0 0
615 1 1 119.91091842035156 70.03632512801923 17.922920556118957 0 0 0
616 1 1 122.37808443412294 72.70334623848827 18.946424933060012 0 0 0
618 1 1 127.83658340447364 71.63080011068425 18.52049759470945 0 0 0
617 1 1 125.29913247203082 74.05538454699308 16.899184162760214 0 0 0
733 1 1 121.07984606493919 57.46681516509197 25.117972064928242 0 0 0
732 1 1 124.15923992253107 58.95159392706927 26.989451399590557 0 0 0
731 1 1 123.50721097565568 62.81092948792387 27.693890555691244 0 0 0
721 1 1 117.66856574153653 64.05931513012709 25.709483592945773 0 0 0
720 1 1 114.75173981543507 65.51498318803725 23.792080895448162 0 0 0
724 1 1 116.57664448584298 67.57407492884909 29.08981030905447 0 0 0
722 1 1 120.00490813662327 67.1315763496104 24.821687909410947 0 0 0
723 1 1 117.30288914757419 69.62424508325861 25.805381114190748 0 0 0
730 1 1 122.25090137122722 62.20168668000616 30.995165430568946 0 0 0
729 1 1 118.65512663906101 62.25904328826593 31.973582277918286 0 0 0
728 1 1 117.6179272481342 64.23691326785051 35.29087457981462 0 0 0
727 1 1 121.20380496017086 65.19630199987432 36.60673400468601 0 0 0
726 1 1 121.92885521997202 66.48822724255135 32.869163790803505 0 0 0
725 1 1 118.8377944820993 68.8408811720042 32.236241323159746 0 0 0
295 1 1 124.27377693797251 -1.4497442540516776 48.181116733046736 0 0 0
297 1 1 125.76736604563428 -1.8438911077497535 42.57478949212095 0 0 0
298 1 1 124.298297679605 -5.377909144287243 42.39756202109756 0 0 0
296 1 1 125.32769834788891 0.6642276985258094 45.50514211823519 0 0 0
283 1 1 152.170449296536 0.6739693647242974 47.99165339561548 0 0 0
280 1 1 158.97920875853208 2.6502390226332606 48.725646570886866 0 0 0
294 1 1 125.92786247507662 -1.243297613773821 51.538941417476494 0 0 0
290 1 1 136.45748939579855 -4.9661946829527395 53.14654330838165 0 0 0
291 1 1 132.99014570152204 -3.2100552322016687 53.31028057085331 0 0 0
289 1 1 138.52578510228716 -5.212288941660413 49.865444071967985 0 0 0
270 1 1 145.3967857200953 -4.563362947504754 56.28715180565581 0 0 0
267 1 1 140.29966328580886 -3.1745772288720677 56.62459297692668 0 0 0
273 1 1 150.89982748584214 -3.295425893452471 57.68533040901672 0 0 0
293 1 1 128.74192911270023 1.432181834739173 51.6112522790135 0 0 0
258 1 1 127.79197318753934 0.8901556703116268 57.019777156410484 0 0 0
292 1 1 132.3012421955717 0.1967963548909586 51.66804664336819 0 0 0
259 1 1 130.03332902341833 -1.9486338940694867 56.711030245977675 0 0 0
288 1 1 140.5657676157461 -2.0845293019477813 48.95178207302448 0 0 0
287 1 1 142.675169168351 0.005219971652048844 51.333344580735336 0 0 0
286 1 1 145.10269989337598 2.242519234526636 49.549601703227125 0 0 0
271 1 1 145.88320012094078 -0.6912508090827308 56.2257909324974 0 0 0
284 1 1 149.4076762318669 -2.0046343192399965 46.71004780476018 0 0 0
282 1 1 155.1037721906061 -1.2487579904229553 49.719648220829484 0 0 0
285 1 1 146.6015686778063 0.7547250484013844 46.21419675698906 0 0 0
274 1 1 151.10464725592857 -0.6512242051753433 54.96144234961463 0 0 0
275 1 1 151.7959708075632 2.2627485117751647 57.3621853909849 0 0 0
281 1 1 158.89270126935992 -0.8945688990517724 50.12799975974822 0 0 0
277 1 1 156.06245961943605 -0.6738589564732482 55.77078381552988 0 0 0
278 1 1 158.20010914074834 2.3276533777089727 54.600507600443294 0 0 0
279 1 1 156.7853942867692 4.014038283844016 51.48180697446274 0 0 0
185 1 1 121.48385081481375 11.133897844447757 55.837200891010376 0 0 0
186 1 1 121.36354781887718 7.172877924049589 56.26140203369165 0 0 0
182 1 1 126.14394565318624 10.677355828705851 57.203466487784794 0 0 0
181 1 1 125.89911004061477 14.60093308417323 57.885133715420714 0 0 0
178 1 1 130.68834610930608 14.77819921805765 57.31486812961186 0 0 0
174 1 1 136.61473178442364 12.551563755048525 57.54813968784052 0 0 0
172 1 1 142.67492858234917 9.849150212076534 57.06059876059288 0 0 0
171 1 1 143.49319670245856 13.475297995560314 57.45973507293721 0 0 0
422 1 1 6.929951043022344 92.19290107549936 57.673489040582254 0 0 0
425 1 1 10.684016496994438 94.73302247621356 55.69656794535791 0 0 0
423 1 1 5.526195418439027 95.68471446347043 57.718199741593416 0 0 0
426 1 1 8.036394938307302 95.75961691466262 53.30158163581257 0 0 0
429 1 1 10.548790425608876 103.50813262087269 50.61318794065566 0 0 0
427 1 1 9.867637556830227 97.53296206819455 50.677062247988395 0 0 0
430 1 1 7.107290615980827 102.15012685136077 51.611370314816284 0 0 0
431 1 1 8.358338338174889 101.25892588836989 55.087219014352 0 0 0
428 1 1 12.50625326606806 100.21068344609067 51.68662645468991 0 0 0
263 1 1 134.81477483022172 -6.136027350317914 58.0903214725588 0 0 0
260 1 1 129.98355646530794 -4.3045883122426005 59.724839915763155 0 0 0
261 1 1 132.40700447319736 -4.030070545630795 62.71983554192247 0 0 0
262 1 1 134.5763821900863 -7.181937104407584 61.807099189945326 0 0 0
264 1 1 136.07990404945318 -2.4722750545196406 59.27297603861073 0 0 0
266 1 1 140.1453967352462 -6.282942814639664 58.92205732862367 0 0 0
265 1 1 138.76319725039033 -3.769941138977033 61.616392816038015 0 0 0
269 1 1 144.47362157292943 -4.411019907631622 59.79145665287577 0 0 0
190 1 1 117.29493921240264 4.458924572386832 63.45536230603693 0 0 0
189 1 1 115.36197858275742 6.568203279628963 60.96795155158194 0 0 0
193 1 1 113.81251295668321 5.191172863061021 66.55458646642805 0 0 0
257 1 1 126.83355412196605 0.5188465377241632 60.876808417570764 0 0 0
187 1 1 120.53146626023961 6.453394823500846 59.85552617798224 0 0 0
256 1 1 130.41530919610366 -0.41374861707787153 61.62764991554779 0 0 0
255 1 1 131.53550672947478 2.7234736452479265 59.64130243762913 0 0 0
254 1 1 129.29520563459627 4.96645916257575 61.60691998332929 0 0 0
252 1 1 134.39904340310235 3.754910682659982 64.00927730838961 0 0 0
253 1 1 130.52822026497563 3.606718248224932 64.95596581287212 0 0 0
268 1 1 142.15325588894936 -1.3909755660091911 59.23397189964251 0 0 0
168 1 1 146.38556871033606 6.898026136728617 62.42489853716234 0 0 0
272 1 1 148.21269581306106 -1.103660176559405 59.3502420472256 0 0 0
167 1 1 147.7682076623842 6.390873777639579 65.90511189473563 0 0 0
276 1 1 154.32839000936193 -0.008802561163598283 59.17092050245146 0 0 0
188 1 1 118.05785504680608 9.239162063080627 60.65885622298428 0 0 0
2 1 1 119.05295029150942 10.545736999929376 66.48134495649413 0 0 0
1 1 1 117.21139796400519 9.247016408324626 63.27552225446154 0 0 0
191 1 1 118.37214122504152 7.562850952764246 65.4441978176486 0 0 0
192 1 1 114.58012905664948 8.788230430654218 65.66745126801935 0 0 0
183 1 1 124.33144612447565 10.058072035143478 60.54022090732869 0 0 0
184 1 1 121.450649743454 12.420292609494057 59.41839077536691 0 0 0
180 1 1 127.29694948799475 14.144372089516164 61.344112828678284 0 0 0
251 1 1 133.91111540183599 7.111034057632826 62.24628975951431 0 0 0
179 1 1 130.04297557936877 11.990372747497911 60.05331388393538 0 0 0
247 1 1 136.3630548893537 11.850779234356791 64.44113465221221 0 0 0
250 1 1 131.8867884688486 8.66408606827929 65.20836433727303 0 0 0
176 1 1 132.98931005827419 15.821973239845754 62.35262160634373 0 0 0
173 1 1 139.41153633632962 10.463207361506857 59.05591403811835 0 0 0
170 1 1 143.9107656222079 13.073075921257898 61.341980143968414 0 0 0
248 1 1 137.6298872374241 8.40964991205241 65.63613760849492 0 0 0
169 1 1 146.81153719114815 10.46641227163465 60.662661926340654 0 0 0
177 1 1 130.7570054274884 17.578810789330465 59.83629465488435 0 0 0
175 1 1 135.59928609904742 15.895816946337284 59.51460676612863 0 0 0
415 1 1 2.3766836296131713 87.91089425124473 66.5310851191364 0 0 0
419 1 1 3.7821680724702724 91.56831724786787 61.680871862513555 0 0 0
437 1 1 -1.913139019278563 94.05208203334776 65.73781198512343 0 0 0
420 1 1 5.47508843625911 94.69952313339854 62.61712865885765 0 0 0
418 1 1 6.538764594096024 89.10553951825013 62.91042427168402 0 0 0
417 1 1 6.901933818605414 90.76061330059198 66.2343102548302 0 0 0
421 1 1 8.581873316398356 92.97052971852226 60.97713559646172 0 0 0
317 1 1 12.905490225407927 93.64096709843379 64.81957621350105 0 0 0
316 1 1 14.06603512651601 90.26002029265119 63.43177341574843 0 0 0
315 1 1 16.793079702528104 90.31533268613488 66.01360153580477 0 0 0
436 1 1 -0.18154671056666988 95.96587766024528 62.99213837924108 0 0 0
433 1 1 2.9117776494872607 102.13931078397248 58.042309180005354 0 0 0
435 1 1 1.1513575220982677 99.57210826939327 63.958965632274655 0 0 0
434 1 1 1.940705932172346 102.19472995492809 61.52708224888811 0 0 0
424 1 1 9.109216964452797 97.0960170098279 58.19041666578489 0 0 0
432 1 1 6.63818407099176 101.41666613387214 58.456593164708174 0 0 0
318 1 1 15.000421469056262 96.96492161167029 63.924789429966665 0 0 0
159 1 1 136.27057308847805 -5.2872432073360205 69.96933331221526 0 0 0
158 1 1 133.2360660426335 -3.301026434017114 70.65496902474685 0 0 0
157 1 1 133.03751635636453 -3.7879783718149667 74.30490394490784 0 0 0
160 1 1 139.0601396505427 -2.6147785663286114 69.86346928027251 0 0 0
196 1 1 116.70444481648897 -0.4050717056697084 70.34691447323797 0 0 0
194 1 1 111.39158619355685 4.333984301080232 69.62891806118951 0 0 0
195 1 1 113.14950108607829 1.049687857619121 69.78043172646585 0 0 0
8 1 1 114.98096073795128 5.400489041024024 72.93006001835992 0 0 0
197 1 1 118.84295677339125 -1.0330465808090026 67.14117573169145 0 0 0
198 1 1 122.56001751941496 -1.807724327342001 68.12852115326902 0 0 0
201 1 1 123.51104230408897 3.2732843985943045 66.87655699952151 0 0 0
202 1 1 123.25859507005971 3.9568822920502074 70.50106908357378 0 0 0
199 1 1 125.2149297013287 -0.7011260293868892 70.4534514463353 0 0 0
200 1 1 126.72328061102067 1.2906313206084703 67.55743169877549 0 0 0
203 1 1 126.96702321472975 5.135599811484808 70.77417318781198 0 0 0
155 1 1 136.0385383446562 0.49536849216808465 72.27380994349934 0 0 0
165 1 1 142.7902605341605 4.279095464335515 66.22077328547526 0 0 0
161 1 1 141.51982460135568 0.11399819445512412 70.88276167765487 0 0 0
162 1 1 142.19015695048805 3.7653127951902197 71.14302674998024 0 0 0
164 1 1 145.43529470031282 1.7328246550633433 67.27980833047101 0 0 0
163 1 1 145.70257577051572 2.8584496492928824 70.91322362225836 0 0 0
4 1 1 115.93863452571587 12.964093349208664 71.35302887430223 0 0 0
7 1 1 113.36288677313748 8.857400645073788 74.10805810897932 0 0 0
3 1 1 118.87052947367286 13.353459775508426 68.89840873078705 0 0 0
5 1 1 117.71482762511371 12.941942905508306 74.78233281811163 0 0 0
204 1 1 126.1632618391735 7.255683145688128 67.67161124534006 0 0 0
205 1 1 123.4208292252641 8.771295344566653 69.3759321219722 0 0 0
209 1 1 124.95233448077157 14.388129601376898 72.53825682314904 0 0 0
206 1 1 125.59312639956828 9.281617829147216 72.66188216224674 0 0 0
208 1 1 126.58925040990668 13.537462239315245 69.01876931846373 0 0 0
207 1 1 128.6318422622953 10.787816432276307 70.96814907273534 0 0 0
210 1 1 128.6113237845314 14.46328494587944 73.78696755668652 0 0 0
249 1 1 134.63815964330644 7.671607313166618 67.62842235670253 0 0 0
246 1 1 135.23591217988192 12.322706593613159 68.15533271152587 0 0 0
245 1 1 138.79799660820007 11.847462166344814 69.35277259805831 0 0 0
244 1 1 140.1744795267946 14.313580355840664 66.80924611769422 0 0 0
166 1 1 144.5552868676272 7.3400247138524115 67.52173595617242 0 0 0
212 1 1 126.78226494934809 19.044078243181225 71.62765898720689 0 0 0
213 1 1 127.2650224024844 19.802151080893243 75.2718652322116 0 0 0
211 1 1 129.74416521778477 16.86601981148119 71.07114185341719 0 0 0
215 1 1 130.2875206135447 22.881200728804327 71.6670935423715 0 0 0
214 1 1 130.96292924598148 20.356891133933296 74.3389594732064 0 0 0
243 1 1 137.56873919668445 16.698727366945608 68.28181962528726 0 0 0
238 1 1 137.28194030674865 21.50964265613414 70.81127471742164 0 0 0
239 1 1 137.92978331826427 20.862731458771385 66.97921174755581 0 0 0
240 1 1 141.48921154372115 19.38837026250253 67.5568383531314 0 0 0
237 1 1 140.788871382545 22.893577156730114 71.3221401649971 0 0 0
241 1 1 142.4854232566188 18.135170008928934 71.08309455244348 0 0 0
242 1 1 138.9455172710672 16.96141173575129 71.83808485495682 0 0 0
216 1 1 127.58884978441912 24.653432172108825 73.88313716098932 0 0 0
219 1 1 130.32102350105149 28.745003519270103 73.12732869892484 0 0 0
222 1 1 133.63864585532286 32.0172864294867 74.35577618042977 0 0 0
218 1 1 132.944729727588 26.270663213652803 74.51836429244852 0 0 0
236 1 1 140.35329538924177 25.124051723187073 68.19219064398492 0 0 0
235 1 1 137.31761450122704 26.515015897448578 69.99531042593468 0 0 0
231 1 1 137.6784240946173 32.185147587953374 71.93269929994563 0 0 0
232 1 1 139.78375682892542 30.949426106439244 68.90218883054837 0 0 0
233 1 1 141.89502320216104 29.112255489117842 71.59575817176835 0 0 0
234 1 1 138.95573980265965 27.35917425459972 73.12497847794086 0 0 0
230 1 1 141.03938284592698 33.531687278861476 73.57299144476295 0 0 0
223 1 1 130.66549616528232 34.293270197109166 74.81032291633554 0 0 0
226 1 1 136.03618977139578 39.63781962489895 75.38550039269887 0 0 0
229 1 1 141.8546340248473 34.95178468190554 70.19486503578506 0 0 0
228 1 1 138.5192882650549 36.90802849611896 69.90900071681308 0 0 0
227 1 1 139.0847447957005 38.5347039840016 73.50417046127201 0 0 0
411 1 1 1.4310379980902799 85.7405338104046 71.92703842741858 0 0 0
410 1 1 2.9712443594212163 86.88322285012904 75.13050308134676 0 0 0
313 1 1 12.94622662280948 86.62506934790791 66.82883537962131 0 0 0
308 1 1 8.722993978949095 81.6554366488102 74.13768804415747 0 0 0
309 1 1 11.12219210378485 83.79938652640236 72.01958083132895 0 0 0
310 1 1 14.353576875432447 83.15796537227828 70.25122063582468 0 0 0
312 1 1 16.536701338010943 85.55586738015545 66.27987491611503 0 0 0
311 1 1 17.30071590745324 85.63445869091713 69.96538866203483 0 0 0
439 1 1 -5.405065204013594 93.33041943738625 71.48450144616763 0 0 0
440 1 1 -6.748480035075963 94.93804919491728 74.58571640221751 0 0 0
416 1 1 3.107133017891231 91.56034533960197 66.73957687982285 0 0 0
414 1 1 4.946915082097134 87.3638796474002 69.46563362829933 0 0 0
412 1 1 -0.1575573944847312 89.07717479467841 70.68331650339499 0 0 0
413 1 1 3.297243289515847 90.36615032000367 71.31294322103884 0 0 0
438 1 1 -1.8180371577175793 94.17021049512628 69.80425647579337 0 0 0
314 1 1 14.088374667811369 89.6564176511767 68.82587978531453 0 0 0
397 1 1 15.09262219662398 94.18032584022963 74.49660997556326 0 0 0
321 1 1 12.454221583509561 100.33370714962778 67.76082123431942 0 0 0
322 1 1 12.525811989380012 99.84204868470398 71.68182231903015 0 0 0
323 1 1 12.170839175263138 102.64145134218022 74.18086222712815 0 0 0
319 1 1 17.53117724206945 97.68958611205682 66.69995600717299 0 0 0
320 1 1 16.254539235545614 101.08542829116222 67.25746818307658 0 0 0
393 1 1 20.57734163853113 97.03842032980107 73.41293793272007 0 0 0
389 1 1 24.543594459630636 100.4559994388588 72.53464702287617 0 0 0
390 1 1 26.750848844219092 97.30777025844593 72.6248294990104 0 0 0
47 1 1 127.65920341330443 -5.02908067048342 75.5880188088038 0 0 0
48 1 1 124.78183025785462 -6.778945616495612 77.69868895673886 0 0 0
49 1 1 121.45402440869128 -4.729688290902221 77.97900054099033 0 0 0
46 1 1 130.46885133617982 -7.428906509189635 76.63586092557198 0 0 0
45 1 1 134.26550984715712 -6.512288119381046 76.86025305585837 0 0 0
44 1 1 133.14476683293537 -4.9668644465383895 80.1741368084717 0 0 0
43 1 1 135.2264734083974 -2.8221933335677143 82.48394142840844 0 0 0
156 1 1 136.61465033713358 -2.3367974207730935 74.65015071266234 0 0 0
10 1 1 111.30262339366166 5.674878524246384 76.89791141473017 0 0 0
9 1 1 114.9397947269335 4.4737229571086745 76.53324808929936 0 0 0
112 1 1 112.06750848431432 1.0830928677316602 83.11660210403112 0 0 0
50 1 1 121.11457032761369 -1.3091767098373053 76.05539954258573 0 0 0
53 1 1 126.32223618114881 0.4523894732728804 76.76934574496266 0 0 0
54 1 1 124.60554719840016 3.8375176709903895 77.27235287844498 0 0 0
51 1 1 121.4081001714886 0.4333922232980081 79.53500359331476 0 0 0
52 1 1 124.90016683723299 -0.887327863689377 80.0259264825402 0 0 0
55 1 1 125.964804325404 4.062093009551748 80.78757068973299 0 0 0
104 1 1 120.40835866736731 4.465795108942913 83.17501793368861 0 0 0
56 1 1 129.59075425491065 3.4379692124974595 79.65076691491777 0 0 0
152 1 1 136.45264815595175 3.4256176543032875 80.84878899457924 0 0 0
154 1 1 135.76621465600832 3.391867926198325 74.91409276700142 0 0 0
57 1 1 129.28875624136984 6.035370651208467 77.02159817009037 0 0 0
153 1 1 138.2026857732014 2.4120288290585754 77.7278602298432 0 0 0
15 1 1 108.90417137232654 13.727021063285855 81.39889814526393 0 0 0
12 1 1 110.61890635181454 12.520845259579586 76.96225722732618 0 0 0
11 1 1 111.34106906884062 9.066262253650798 78.30437671627425 0 0 0
6 1 1 116.02573112834456 10.066810062121808 76.6184243267244 0 0 0
13 1 1 112.36265133428702 15.841542099391573 77.49665532377647 0 0 0
16 1 1 112.52806268283207 14.562174772730122 82.78785750815885 0 0 0
100 1 1 120.98788302361662 10.753005955546769 81.66767380518789 0 0 0
97 1 1 124.15530269501589 14.595057650254907 82.5282598125151 0 0 0
58 1 1 127.79714149261703 8.63299047637858 79.39935768355782 0 0 0
61 1 1 130.95654645715246 11.944038804320535 77.35709118975969 0 0 0
60 1 1 133.03554294742204 8.868011842813372 78.73073052957231 0 0 0
63 1 1 135.10581482596936 12.825827082175637 80.36236001098844 0 0 0
62 1 1 131.48572729017192 13.87893283776479 80.71481118945388 0 0 0
59 1 1 130.79907240816144 8.443596712706238 81.7645404825398 0 0 0
64 1 1 135.87612429916578 14.956895612208845 77.4512987815303 0 0 0
14 1 1 109.10617853376499 16.888507189107056 79.11512572881674 0 0 0
17 1 1 111.48021043405092 18.390861814693114 83.0156939280336 0 0 0
93 1 1 125.15350804987237 21.459403407626386 81.35809400277017 0 0 0
96 1 1 121.22173685307655 16.89937432494194 81.98278651262086 0 0 0
92 1 1 123.56765903560796 24.113831872632442 83.46121716111668 0 0 0
65 1 1 133.67074862362472 17.64974096161233 79.08562523334164 0 0 0
69 1 1 136.4540186696564 22.369163646744088 81.99683931080015 0 0 0
66 1 1 135.46518042543605 17.790348922517712 82.34539591623123 0 0 0
68 1 1 137.87247285645884 20.847529335919205 78.74365773579459 0 0 0
71 1 1 141.89873741844735 22.96220432493999 80.89763315953805 0 0 0
67 1 1 138.85694568703784 17.438306795781777 80.5758303776216 0 0 0
217 1 1 130.12158878838113 24.883969726346344 76.75158715130485 0 0 0
220 1 1 129.14821118150567 29.814454977207852 76.50449548003033 0 0 0
221 1 1 132.7605381012769 30.332661635192924 77.6088430064898 0 0 0
75 1 1 144.05431239869705 28.937042331115638 81.09383664796084 0 0 0
72 1 1 139.7999266680137 26.09792848759274 80.72413257469472 0 0 0
76 1 1 141.9439761250433 31.404618036695787 83.46723408426327 0 0 0
224 1 1 131.9598122591659 35.280618447162745 78.23244760345301 0 0 0
225 1 1 135.5164957150759 36.235759418817075 77.15648746650697 0 0 0
493 1 1 9.124603608056933 76.24251898081302 80.23736514422406 0 0 0
492 1 1 11.137488676665638 75.43221164678943 77.39002948587843 0 0 0
491 1 1 13.947898376276678 74.5769853752863 80.07440461451037 0 0 0
487 1 1 17.919062741554715 70.76434227909843 82.4112237787948 0 0 0
486 1 1 21.186391490805143 72.36991211176945 83.60064417857886 0 0 0
490 1 1 17.695239720151392 75.15869775870729 79.44504022802953 0 0 0
489 1 1 17.997900891534062 76.34909900309181 83.10095608537773 0 0 0
299 1 1 26.530568884856024 76.36032315920657 78.84744043938872 0 0 0
305 1 1 13.339755467755628 81.34171267175022 75.17356400173124 0 0 0
307 1 1 9.060631284238848 82.89026839245517 77.8829004380667 0 0 0
306 1 1 11.664836415276488 80.25963342301013 78.63414479984371 0 0 0
304 1 1 13.862564056825729 85.15915033093391 75.87101292933967 0 0 0
303 1 1 17.225508040127874 84.91827960507572 77.76382695369556 0 0 0
302 1 1 18.84504522654013 81.53520426242795 76.4279554859653 0 0 0
301 1 1 21.365445015211268 81.02385208753202 79.46239356817742 0 0 0
300 1 1 24.665334427807785 79.54461636682677 78.23404089760808 0 0 0
447 1 1 -14.011019897360645 93.34015369677209 83.86853246936873 0 0 0
446 1 1 -13.331850537213576 89.59956835143211 85.01561186034616 0 0 0
444 1 1 -9.971909832144904 85.80519991451044 80.33016304189096 0 0 0
441 1 1 -9.342330052128256 92.28312472642155 75.26820131832177 0 0 0
443 1 1 -9.200881497753366 87.15058173363799 76.8442981219642 0 0 0
442 1 1 -7.8542102433351495 90.39801089670888 78.40975789168829 0 0 0
409 1 1 0.49250864023399155 88.58872158345689 77.30046619145814 0 0 0
408 1 1 -0.5849183818328851 92.34081144749308 77.13198071849928 0 0 0
405 1 1 4.380906794516667 90.61224775134312 77.8134223260448 0 0 0
406 1 1 3.332733532958674 91.57163289365228 81.30755970072457 0 0 0
407 1 1 0.9065277572943999 94.23347492203536 79.91829830627299 0 0 0
404 1 1 4.9585152144024 94.31365791821642 76.79199634715405 0 0 0
401 1 1 9.881022973234636 92.4477136234231 76.39955573407318 0 0 0
402 1 1 8.841012731963103 92.08684844863122 79.97548370128179 0 0 0
399 1 1 12.93432855392721 94.97027873075226 79.91861325996868 0 0 0
403 1 1 6.71970057211005 95.15070234330527 79.94469111066871 0 0 0
394 1 1 19.997583650437605 93.63213352731205 74.88313421043547 0 0 0
507 1 1 23.40722513395682 87.206976631125 82.44577569270825 0 0 0
398 1 1 14.92001299760268 92.26091093018854 77.78803579028764 0 0 0
395 1 1 19.016677666017447 95.44632488980025 78.23947011988164 0 0 0
510 1 1 28.306385988486173 88.25400351317325 82.03983166088332 0 0 0
511 1 1 27.772494325268223 91.82732458168431 81.26843289316184 0 0 0
515 1 1 32.40554954412294 95.67410534790561 81.03436430414091 0 0 0
514 1 1 32.53013804818796 92.12558461223163 79.58189813579206 0 0 0
513 1 1 32.78290028183648 90.7162003852764 83.00458191860211 0 0 0
517 1 1 37.25672340737918 93.39453230367327 79.92428174904576 0 0 0
516 1 1 35.632310434966016 95.11773668901981 82.92667865639747 0 0 0
518 1 1 36.32668629144501 96.18321318618115 77.53696050585789 0 0 0
400 1 1 10.824369564061783 96.09138204426554 76.9206954184245 0 0 0
328 1 1 12.061802298240764 102.19705338120197 79.85656795306912 0 0 0
331 1 1 7.769059601151183 103.77563574616877 81.73563237307745 0 0 0
329 1 1 13.156900519938409 103.26762596253238 83.32929796750373 0 0 0
324 1 1 15.33868091621843 104.26680671279183 75.53503186898824 0 0 0
392 1 1 22.35244924893654 98.17732464593597 76.5155352490631 0 0 0
396 1 1 16.38736110144896 97.47463748067008 76.12274569417745 0 0 0
325 1 1 17.52338977756302 103.58583214684636 78.5181604271383 0 0 0
386 1 1 28.98349274534155 101.32618051358834 74.76908915032179 0 0 0
388 1 1 23.630440729279055 102.36222716794167 75.9605549913667 0 0 0
391 1 1 25.580356097317342 95.98598738647709 76.0380914739489 0 0 0
387 1 1 26.67919991857699 100.97432727907278 77.7323850419939 0 0 0
383 1 1 31.744264294797723 104.23727545338916 77.82333910173487 0 0 0
519 1 1 37.651296656931024 98.8160627543729 80.09654414977851 0 0 0
520 1 1 40.69437728140405 96.80645082996446 80.806590547952 0 0 0
521 1 1 41.35147343815654 96.36770212295048 77.0683986766241 0 0 0
522 1 1 41.11082797476438 100.16278279575388 76.61206531958415 0 0 0
524 1 1 47.466202016079066 99.83596739763729 78.47258256643144 0 0 0
523 1 1 43.90094557692728 100.77140589457281 79.19805301014567 0 0 0
525 1 1 48.57694321128945 99.731997921844 82.11532024330606 0 0 0
327 1 1 12.386319775465708 105.75358373911097 78.67430668138879 0 0 0
330 1 1 10.466744491545931 106.1562675594395 83.13105109171791 0 0 0
326 1 1 15.850458047695565 106.57714747451998 80.18184460911456 0 0 0
385 1 1 27.525994572922976 105.07203108060419 74.57093674448463 0 0 0
382 1 1 32.38545731852584 106.3258149558326 74.7349370589914 0 0 0
381 1 1 31.15368869672359 109.57257742937554 76.3532223343424 0 0 0
384 1 1 28.008723668737233 105.58186154537547 78.34320492631717 0 0 0
378 1 1 36.11728183081404 112.18041237557458 75.32032221085868 0 0 0
379 1 1 36.33869620322253 108.42505402564764 76.1240906837288 0 0 0
380 1 1 33.84988273321954 109.03550612032724 78.96576627217036 0 0 0
376 1 1 40.04377709241723 111.40449434167999 79.19439702910158 0 0 0
375 1 1 41.44257544162662 110.50242337399047 82.64868426048179 0 0 0
377 1 1 36.65173225082785 113.30069134146284 78.9460509112453 0 0 0
142 1 1 108.01030331320977 -3.462526625777799 89.84053670766416 0 0 0
143 1 1 106.21169497413564 -6.210485322889535 91.69535017837819 0 0 0
40 1 1 132.6170534608482 -5.234695397838772 85.96986717244728 0 0 0
41 1 1 129.94540240318577 -3.4477087898936536 83.87354455576559 0 0 0
113 1 1 108.24490749448285 1.392027487934302 83.42618380187898 0 0 0
116 1 1 108.78552574947336 5.990743954883668 84.23670141609747 0 0 0
117 1 1 105.56500276377379 5.563846595804603 86.45655533697814 0 0 0
114 1 1 108.19194560183755 1.4216549957563467 87.28874922660592 0 0 0
118 1 1 107.60139258472337 6.682982055581909 89.50285456730984 0 0 0
115 1 1 110.67592731694815 4.104184071564418 87.10497286197119 0 0 0
111 1 1 113.57748987169207 -1.8121123341888699 85.14748712796143 0 0 0
110 1 1 114.71894315986981 -1.652300609715062 88.7892529520924 0 0 0
109 1 1 118.62390143107828 -1.5861797675245481 88.75368409897065 0 0 0
107 1 1 116.4766836983166 1.5606302974957582 84.76436079123522 0 0 0
106 1 1 117.60810498233879 3.44139186189557 87.86088717853497 0 0 0
108 1 1 119.34733038173454 -0.948495371381193 85.05138655743441 0 0 0
105 1 1 121.2692577964116 3.4143725314614293 86.80689388702427 0 0 0
34 1 1 128.2408613962494 3.1992187358900175 89.35872486966841 0 0 0
38 1 1 128.36039659899123 -1.8531647282542016 88.77862978657505 0 0 0
39 1 1 132.08260940646113 -2.421371613673387 88.54193609123693 0 0 0
151 1 1 135.3912205931566 0.96862558642566 83.79577114967788 0 0 0
42 1 1 132.29090858164423 -0.44267156196838725 83.67003825216953 0 0 0
35 1 1 131.72365872983835 2.0797811612834587 90.69811900564243 0 0 0
150 1 1 138.18650501061776 0.6566432186617622 86.20465406040672 0 0 0
124 1 1 102.02071104432277 14.405047473624752 91.21871241434191 0 0 0
120 1 1 104.77850484351333 11.122067341364199 86.97574977590351 0 0 0
119 1 1 108.4208916736504 9.889897955907475 87.50880263432869 0 0 0
123 1 1 105.61958650315992 14.608044096223532 90.17838188530747 0 0 0
121 1 1 103.81797957648 9.886976886925403 90.35090648915568 0 0 0
103 1 1 118.19783184723131 7.207962357495014 84.40734522329952 0 0 0
24 1 1 119.22907058423729 13.445219907111985 91.24892502823295 0 0 0
99 1 1 119.37771610289992 12.927740007152563 84.40869405127155 0 0 0
102 1 1 120.63731762844984 8.506957665770269 86.93622779082138 0 0 0
101 1 1 123.33169851716598 8.553974571111677 84.06613103012012 0 0 0
98 1 1 122.80902018634335 13.795668218794807 86.01244877223492 0 0 0
30 1 1 126.38355077074904 8.807941481331516 90.4516004464431 0 0 0
27 1 1 128.30588131087637 14.259391376506416 89.53464619609159 0 0 0
31 1 1 130.09615274011983 7.9934169524651555 89.44331050907545 0 0 0
19 1 1 110.68466084289147 16.50194601743242 87.99450203695746 0 0 0
18 1 1 108.62473064145183 17.36373882379686 84.98938826502317 0 0 0
21 1 1 116.48045681737052 19.35906169524985 88.55044756901403 0 0 0
20 1 1 112.88884529554645 19.0006540655657 90.06860377062071 0 0 0
95 1 1 121.95974906830402 18.554722937608435 85.21814520560353 0 0 0
94 1 1 125.72824546926176 18.720738025198813 84.20309422081627 0 0 0
91 1 1 124.5494660887285 22.788435542366013 86.97720340797713 0 0 0
90 1 1 127.9182951751953 20.878654764160505 87.40232292310326 0 0 0
89 1 1 129.47399782050005 22.345797810875123 84.24869826671319 0 0 0
86 1 1 132.9255137571151 23.925063877140865 87.3888268846261 0 0 0
70 1 1 139.81459714032425 21.530086133869755 83.71115714191305 0 0 0
88 1 1 128.1437812053664 25.855699763400118 85.08368875202255 0 0 0
87 1 1 129.56071541761642 25.274066872684976 88.86688073436558 0 0 0
84 1 1 131.98671781652806 29.448042496126817 88.15189484264165 0 0 0
85 1 1 133.19856448381 27.146015433811634 85.28404357623188 0 0 0
83 1 1 134.43716252848222 28.072354256853725 90.68816723528981 0 0 0
81 1 1 135.54820969608568 32.2772779598907 87.75784519828807 0 0 0
82 1 1 137.213402728338 28.685909134507526 88.06492122293677 0 0 0
80 1 1 136.58497015104055 32.945233928221555 91.40670546352752 0 0 0
74 1 1 144.0384629074835 26.34442359221112 83.97167872237988 0 0 0
73 1 1 140.16214640330455 26.8524440457407 84.47801675504833 0 0 0
79 1 1 140.1626081082062 31.826482354664144 90.93402450415478 0 0 0
77 1 1 143.64647814361263 33.768454471695165 85.60085640429699 0 0 0
78 1 1 140.69547553642553 34.4433529833282 88.02143857700119 0 0 0
596 1 1 20.482491417884223 63.99888362724845 86.58277512446844 0 0 0
595 1 1 23.74218126130961 63.455848213872386 88.74840251239472 0 0 0
594 1 1 23.809898439107254 65.06225184970633 92.37312573971376 0 0 0
494 1 1 8.937575705689062 78.1525501665598 83.57212317639416 0 0 0
495 1 1 10.121539282785166 76.2041386339947 86.83060846153904 0 0 0
488 1 1 15.793601298970922 73.20827538542389 84.29414634337013 0 0 0
484 1 1 22.356783957180923 69.64202503199216 88.86412121839427 0 0 0
485 1 1 20.125792289914692 72.16703645183462 87.22000113746216 0 0 0
482 1 1 25.5336147790177 73.30149346366312 85.07131249542061 0 0 0
483 1 1 25.829468909913935 70.0699497707371 87.02292300804962 0 0 0
479 1 1 29.622969061864055 74.2853267777639 88.24735377079924 0 0 0
481 1 1 24.292022121336334 75.21822276470027 88.13525165947033 0 0 0
480 1 1 26.515875377199457 73.55205909566882 90.55586810531709 0 0 0
476 1 1 31.708342839250175 76.36168721237867 91.97727549316151 0 0 0
347 1 1 4.107419265132895 85.69504742388736 87.03848593184449 0 0 0
496 1 1 10.629835528239896 78.51138133474832 89.91937661358907 0 0 0
348 1 1 7.633241759089403 84.83587422309057 85.65154878641097 0 0 0
497 1 1 11.486180025959435 82.12931243518571 90.61286700700418 0 0 0
500 1 1 14.734245436043349 82.22412129442301 86.83193511044564 0 0 0
503 1 1 19.246219348432273 82.5416801066122 84.81046744949255 0 0 0
499 1 1 15.627266365604118 78.98780427826634 88.59067245534575 0 0 0
502 1 1 19.577096026812008 81.86640720947317 88.4304449964524 0 0 0
501 1 1 16.92306398634304 84.35538356486988 89.15903627102493 0 0 0
504 1 1 19.197220381942756 86.33647240271739 85.3329594319348 0 0 0
505 1 1 22.105461348125043 86.73257456342624 87.585962411231 0 0 0
478 1 1 28.54527873411045 77.97385771620742 88.03865939479778 0 0 0
477 1 1 28.264093070380966 78.12135990344959 91.8540068494583 0 0 0
506 1 1 24.501319229214552 84.70102735438296 85.25133179973027 0 0 0
474 1 1 31.60716517363362 81.98804679420661 91.34466655696932 0 0 0
475 1 1 33.27781206364622 78.95742210855664 89.75671732308476 0 0 0
445 1 1 -12.653313333112104 86.52399201394257 83.02794256881934 0 0 0
346 1 1 3.6504851685066413 86.76742810172983 90.85869340192487 0 0 0
349 1 1 7.713172598971375 88.24433695658927 83.95310552718145 0 0 0
353 1 1 11.6449748176536 92.41852819052774 85.39952144488663 0 0 0
351 1 1 10.493277905598392 88.41929784272683 88.82953493989736 0 0 0
350 1 1 7.440698605448901 90.149514733158 87.29935252058772 0 0 0
352 1 1 12.526256701456829 88.81036550783335 85.70640744496399 0 0 0
354 1 1 12.981108751034826 93.12052885543595 88.90524836311826 0 0 0
356 1 1 16.784739547857463 93.08263080686065 84.8516161939862 0 0 0
355 1 1 16.164474579810246 91.3089138924374 88.32862533951592 0 0 0
359 1 1 21.479442201286414 93.8146899493141 86.39876162552945 0 0 0
358 1 1 19.119232304002185 95.22338807467641 89.18290788013121 0 0 0
512 1 1 29.857243757769176 92.5640831878155 84.47454178415848 0 0 0
508 1 1 24.22052331163878 89.80235628055046 85.12870656569199 0 0 0
509 1 1 27.734068798295482 88.55246320035646 85.72819207129645 0 0 0
533 1 1 39.15443117438218 93.47120912233387 87.71999853215044 0 0 0
536 1 1 34.72467278867245 93.07746149128953 89.97976418767357 0 0 0
534 1 1 39.84741525913624 93.09293848614989 91.51790717697735 0 0 0
530 1 1 44.24999942481215 94.34882113610297 87.92587621468634 0 0 0
339 1 1 5.589592945711153 95.75154960293115 90.56749973904469 0 0 0
335 1 1 2.856706626950436 102.45672678258578 84.78125801149436 0 0 0
336 1 1 4.329155054942318 99.71365174189775 86.96406403509495 0 0 0
337 1 1 5.195730620710692 101.10869610408218 90.28287203446764 0 0 0
332 1 1 8.464060893826666 101.08052407717256 84.4531668073446 0 0 0
333 1 1 8.105583559952116 103.78129667219075 87.13416798619792 0 0 0
340 1 1 9.008151895758411 97.24629993551805 91.23862291637487 0 0 0
357 1 1 16.708044439143837 96.55431845671097 86.67791729411944 0 0 0
360 1 1 21.819087509690853 97.39929625435988 84.82349355350719 0 0 0
361 1 1 22.29366645001958 98.68541601376643 88.36347586264395 0 0 0
367 1 1 30.19827014767835 102.45097145186081 83.92880232145758 0 0 0
362 1 1 25.572889382491482 97.09047141616043 88.98077322025652 0 0 0
363 1 1 26.387740654350843 97.73853379494012 85.15347907148727 0 0 0
364 1 1 25.875575028744098 101.51914456114889 85.39264762722594 0 0 0
365 1 1 27.68831923678836 101.58622300063891 88.94689888706894 0 0 0
366 1 1 30.70441338272107 100.13902412893437 86.89751328548341 0 0 0
370 1 1 35.05611972225315 103.44510993541948 84.98828003527204 0 0 0
532 1 1 39.24025966920028 97.16555332799705 87.69642594691624 0 0 0
369 1 1 33.18892598787839 104.22194809850602 88.23444274777088 0 0 0
526 1 1 48.33336542202089 96.04032434354274 83.73589982659907 0 0 0
529 1 1 43.244967938997156 96.24730572122584 84.67724882819549 0 0 0
528 1 1 44.73566846016145 99.5672003342439 86.25536065696724 0 0 0
527 1 1 47.93513826654924 97.64480779501935 87.22745547010189 0 0 0
531 1 1 42.45076575205434 97.41064029148671 89.79294302771886 0 0 0
334 1 1 4.941707773440572 105.542379727143 85.71111740698393 0 0 0
368 1 1 30.090007354939548 105.49420176683687 86.20122575843558 0 0 0
374 1 1 39.571251787968116 107.3554984948786 83.08780178452697 0 0 0
371 1 1 34.488684690793114 106.93182512709767 83.53016100917957 0 0 0
373 1 1 38.96492075013505 106.23046550750762 86.78329948354636 0 0 0
372 1 1 35.65596914354469 108.36127786322838 86.87742145892523 0 0 0
144 1 1 106.81674225805146 -4.924685494375324 95.46262629582603 0 0 0
145 1 1 110.40335982186399 -5.104273823796233 94.78515236067608 0 0 0
146 1 1 111.59039833778785 -4.428000265077243 98.34263013757241 0 0 0
141 1 1 108.17422504628355 -1.1701287920910974 92.97423385127684 0 0 0
139 1 1 108.22328992286428 5.17614640180731 94.96640645616245 0 0 0
140 1 1 109.46513170915833 2.4185178729707193 92.24687613875022 0 0 0
138 1 1 105.05088549905253 7.121618939267956 95.67170245484967 0 0 0
37 1 1 127.38571200487199 -1.444458132293971 92.52950372546489 0 0 0
33 1 1 127.45640857066373 4.542674701407963 93.01080917846683 0 0 0
36 1 1 130.28960219397214 0.3199965864624205 93.95435405182661 0 0 0
125 1 1 103.14474930050754 14.086793812639637 94.83656078916634 0 0 0
122 1 1 106.81164766151957 11.594514449991546 92.35047989123602 0 0 0
137 1 1 105.73524597395341 9.69497093998414 98.74033039904893 0 0 0
23 1 1 116.52512706519788 15.7034019731813 92.94462985370215 0 0 0
26 1 1 125.64032646909952 14.41885619962714 92.13759599601887 0 0 0
25 1 1 122.48919298536359 12.294054151673762 92.83455104984714 0 0 0
29 1 1 127.51835889604511 10.326880920042571 93.52413487011667 0 0 0
28 1 1 130.62368814844288 12.544273990235471 92.2283589870755 0 0 0
32 1 1 130.5921419547043 6.455107824934907 92.99314704565988 0 0 0
128 1 1 100.23879233525194 18.138912068130885 95.25613623682013 0 0 0
129 1 1 100.67654325531385 21.01768077273312 97.63541041408334 0 0 0
127 1 1 102.54175563852823 19.16773945553919 92.46795276240375 0 0 0
126 1 1 105.31271429511739 17.10889494005994 94.49024417038339 0 0 0
22 1 1 117.98241593652043 19.107901387519963 91.89612627415201 0 0 0
592 1 1 17.647144143137673 64.8109886704793 94.44528573614357 0 0 0
591 1 1 16.40308838254091 66.85717027734847 97.49895911237488 0 0 0
593 1 1 20.40760648907899 66.34354712112615 92.58146249233263 0 0 0
558 1 1 14.254219035635543 74.64283046508758 99.91376712597004 0 0 0
555 1 1 16.76227774240421 75.02536840735283 94.67093699876685 0 0 0
556 1 1 18.918348107733816 72.249167377825 96.5281241212571 0 0 0
554 1 1 17.068501164880036 77.23765239060391 97.77804242768941 0 0 0
557 1 1 17.408007128567828 72.54601264269803 99.83576392789774 0 0 0
553 1 1 20.875868478402275 76.63573475935353 97.68868791386137 0 0 0
552 1 1 21.25690116173182 77.76839447463706 94.21217001209322 0 0 0
498 1 1 14.7644299112552 80.69324045208528 92.02063895672812 0 0 0
456 1 1 12.607201637430016 86.14056275508787 97.53764855296866 0 0 0
551 1 1 19.185092822998687 80.82374482976519 94.7382233306455 0 0 0
550 1 1 21.08005971745241 82.01482008839541 97.92929551908742 0 0 0
547 1 1 23.183804422850624 86.06302257729942 95.05747315815643 0 0 0
548 1 1 23.85948614288428 82.95780208825953 93.07877961960097 0 0 0
545 1 1 28.602886396273345 84.8108116783798 95.2726124222129 0 0 0
549 1 1 24.40097536704808 80.90081851500558 96.41978067837609 0 0 0
546 1 1 25.730241584636175 85.70812728287974 97.83147866286969 0 0 0
471 1 1 30.559184074967003 81.33138418453277 100.2024607096462 0 0 0
472 1 1 32.293361416314475 79.16725931720934 97.54118729009018 0 0 0
473 1 1 33.71172451417851 80.86498245913043 94.43182148015765 0 0 0
344 1 1 5.548175290720419 88.47885305659055 96.06727680365398 0 0 0
345 1 1 6.905940318573395 86.792209035586 92.88215202725866 0 0 0
342 1 1 6.695541316305542 93.51461675065202 95.10563384198522 0 0 0
343 1 1 7.424035591484002 91.25360706637292 98.16348463867295 0 0 0
455 1 1 10.449203190449039 89.13462214017999 96.5405473602497 0 0 0
454 1 1 12.584875854493363 91.2857039992882 98.9721645913519 0 0 0
450 1 1 14.581971431687592 97.9924229885329 93.67593521263677 0 0 0
452 1 1 16.988765838406252 92.6626311916337 95.49472758657423 0 0 0
453 1 1 15.842331378313952 89.84675499340332 97.95875897030412 0 0 0
451 1 1 15.197101490831113 95.79283765784592 96.8252234441135 0 0 0
540 1 1 30.845799997217384 93.64203878076658 93.0140669200412 0 0 0
541 1 1 31.64371874516197 89.82027658768864 93.06269455512584 0 0 0
544 1 1 27.295579129523592 87.52758975511729 93.12649926718159 0 0 0
543 1 1 27.371859924531872 90.08840280703096 95.93260621774499 0 0 0
542 1 1 31.00146492742923 89.18883958121023 96.65679054530402 0 0 0
539 1 1 33.26747543108565 94.76844306874209 95.78510716053125 0 0 0
537 1 1 35.91421153552486 89.900935864804 91.93320717544746 0 0 0
538 1 1 35.48682156790691 91.66067023909162 95.37970220035356 0 0 0
535 1 1 36.827931374169424 95.43374170858023 92.10936224866062 0 0 0
338 1 1 4.051701004553408 98.45089294356266 92.86593810501606 0 0 0
341 1 1 8.268970494945304 97.19200150905098 95.03724907757719 0 0 0
449 1 1 11.395693401748078 98.5475276291998 91.70334601243641 0 0 0
448 1 1 8.613684809541626 99.17256264888165 94.2513614424123 0 0 0
147 1 1 114.02147846493412 -6.247452460519157 100.66797046278619 0 0 0
148 1 1 111.63186460364314 -9.264934845969153 101.25512312857182 0 0 0
149 1 1 109.83666236300255 -11.544761470488442 98.65419562225252 0 0 0
133 1 1 100.3825432675774 15.583563247388682 100.47592447008131 0 0 0
134 1 1 99.70679517993482 11.914549445907792 101.17333360032616 0 0 0
136 1 1 104.14624284639905 8.53344874318689 102.02879265332032 0 0 0
135 1 1 102.10172151361209 10.915137042617172 104.03050051338292 0 0 0
132 1 1 97.83628164638985 18.37893737682091 101.51138555616978 0 0 0
131 1 1 100.56110244673168 20.200375321975617 103.46269660935657 0 0 0
130 1 1 102.9644506146905 20.55938367500067 100.62875757856973 0 0 0
590 1 1 18.497946158296163 66.663143457855 100.69030417384629 0 0 0
559 1 1 14.29772650919961 78.39030210342689 100.79565643060499 0 0 0
560 1 1 13.039560075447705 77.89889543855503 104.48098675036537 0 0 0
589 1 1 18.155387364300246 69.0699954974935 103.44106037778693 0 0 0
588 1 1 20.88583554127991 71.80639150771235 104.24260294413688 0 0 0
562 1 1 18.43655088396769 77.51027002430055 104.09687660844212 0 0 0
561 1 1 15.520492155622884 75.24710485795353 105.26951424018283 0 0 0
565 1 1 20.52641772909539 77.45027430041186 108.55368479831002 0 0 0
587 1 1 23.845848652670806 71.52941360784227 106.41691706389025 0 0 0
586 1 1 25.904252882187105 74.65543320456334 107.41474708802272 0 0 0
457 1 1 11.765399767128471 86.36805742115723 101.33224549898145 0 0 0
563 1 1 17.35559262310489 80.72791182008883 106.04601214478403 0 0 0
566 1 1 21.645204284434296 81.05777741329152 107.91577967317379 0 0 0
467 1 1 32.13310515600486 87.1523361813042 104.52684770389867 0 0 0
470 1 1 32.41558616327136 81.74539633376956 103.56517653057519 0 0 0
466 1 1 28.40983782211553 87.0496672484725 105.90734478434571 0 0 0
468 1 1 32.93437589114701 86.48790782227546 100.91848481330842 0 0 0
469 1 1 35.19468309498326 83.45534350729288 101.48713550084284 0 0 0
458 1 1 15.060096270134785 87.73557395972043 102.50942057952469 0 0 0
459 1 1 17.37032659477494 90.74849830094391 103.27256473615233 0 0 0
460 1 1 20.450017857060182 92.48278244011658 102.37771531629996 0 0 0
461 1 1 21.04270101528182 93.15345053286711 106.0525556191083 0 0 0
462 1 1 21.57335584326574 89.25848384506897 106.54959741133192 0 0 0
463 1 1 23.26635340629721 88.54722423571437 103.1840620088099 0 0 0
464 1 1 25.908997925511095 91.33109867069608 103.54938168245486 0 0 0
465 1 1 26.826308917674062 90.28523241195019 107.17879381621309 0 0 0
564 1 1 17.04239869965447 78.7575717597221 109.34435436628345 0 0 0
584 1 1 29.871188934202994 72.3746907893566 111.5191213219712 0 0 0
585 1 1 27.51666563758814 75.10727279211265 110.80545174725779 0 0 0
583 1 1 30.574655247441868 71.40087432867499 115.14587164364475 0 0 0
568 1 1 21.771717281068824 79.51556045587 113.33064874802861 0 0 0
567 1 1 19.97505827667553 82.1932746408192 111.36962084185343 0 0 0
571 1 1 24.563735122975544 83.56690730755709 116.12222450691281 0 0 0
570 1 1 24.65071976195269 84.0089313695798 112.32830775293354 0 0 0
569 1 1 25.108639134752885 80.50652334404433 111.1744332553963 0 0 0
572 1 1 28.01892306056549 81.58927881148257 115.64322423381037 0 0 0
573 1 1 29.595102302984554 84.79914249237498 113.92288458884312 0 0 0
574 1 1 27.984217109446774 86.83410530456553 116.69042682183026 0 0 0
581 1 1 32.296638664602774 75.1776207872011 119.16295566742427 0 0 0
582 1 1 29.10214437021819 73.05604468310683 118.30639548324619 0 0 0
575 1 1 29.578493759601493 84.52588218545033 119.27565819056008 0 0 0
580 1 1 31.76912774023334 78.908499682237 120.17355481601787 0 0 0
579 1 1 32.92809853212462 81.07116629990809 123.34612246418631 0 0 0
576 1 1 33.30350940800475 85.52548294740636 119.94163657128091 0 0 0
577 1 1 35.875765026855944 82.91720284746332 119.06038729214701 0 0 0
578 1 1 36.51993446530114 80.98946045910418 122.30916237850232 0 0 0

Velocities

876 0.0018893614592854235 -0.0005952092098857739 0.0008200757702996959
877 -0.0005297560329308522 0.001693002361277902 -0.0002924344048298362
881 0.0007720055734672257 0.0016327026194898236 -0.0027762954978822027
880 4.562958380898349e-05 0.000987293856734292 0.0012863563850352164
879 0.00031584317332507744 0.002693909391553127 0.00017016563766441466
878 0.00020090894359027137 -0.0020394178456353603 0.00040605783342313674
873 0.0015154256521267388 -0.0012185544936794304 -0.00036702671148725307
874 -0.0006873321057714796 -0.001090457024878718 0.0006696039397052604
875 0.003266147801629147 -0.00421005795461659 0.0012678928614881751
870 0.0007928319751163213 -0.002223599182317742 -5.772044221781622e-05
894 0.00011597967895454522 -0.001124296466802544 -0.000715727999344707
889 0.0032714655311015554 0.0011439057826620207 -0.0009554508530716555
862 -0.001146669517856949 -9.606764088460615e-05 0.0005958074015934745
866 0.0014545739930498516 0.0013465476277688773 0.003195415384042984
863 -0.0029919260550830638 0.0006075663892955722 -0.00016596597744356105
865 0.0016311023578018788 0.0005043518856815935 0.0018224736626844882
869 0.0017094776139364185 -0.003052876351458633 0.0014721204442893604
888 0.00033797035545808077 0.0008268247913885221 -0.0004952140138789244
886 0.00218603903899509 0.0022008845149119505 -0.0002979358713408938
882 -0.0009086706950716809 -0.0005231790844003664 -0.001327616139740177
883 0.0004561680638098571 9.053561930811986e-05 6.478646839299361e-05
884 -0.0006444996060009839 0.0015954233685663303 0.0012035730568066539
868 -0.000239185889406663 -0.0012081407502864958 0.001218907740232332
867 -0.0006931206720172221 -0.004278699179473764 -0.0003056468786946521
871 0.000686725617889813 -8.210185117299724e-05 -0.002166498897365616
872 0.0008066372343633056 0.001879319648914112 0.00030249080845215433
890 -0.0009767840987108026 0.00041282555084334676 0.0020773002502807707
891 -0.0014322926379133198 0.001539027566832181 0.0017686215983611852
856 -0.0010291426717811804 0.001109668895578488 -0.0005863142517855139
855 0.0009035545653954759 0.002397856814348302 -0.0024691268279095338
854 0.0012062918063143638 -0.0013847665621607276 0.0004441460197899166
859 0.00101012604693067 0.00043248062139378404 -0.0002558050393448581
858 -0.0022396034982085653 -0.0015861624167397927 0.0008459584278682555
861 -0.0011594962368001852 5.549672164483612e-05 0.0004905414442856623
860 -0.00022117472209331476 0.00029134333339725263 -0.0016713033402058163
857 -0.0005545297953797779 0.0005704178265353365 -0.0006605968643706584
864 -0.0013112815430438092 -0.00029296791098689924 -0.0003126353555847173
760 0.003203337637575412 -0.0028171522105941015 -0.00041745127502136955
759 -0.0017999234692499615 0.001071983832237626 -8.50669601039478e-05
756 0.0015382392791390518 -0.0005297425830212941 0.001067826362456676
893 0.00017263342415456333 -0.0018672888863765806 0.002791394813468572
892 -0.0017032940535779393 1.248856365884427e-06 0.0006584685746441122
887 0.0010651247145965373 0.0024242219433649667 0.00027894819783446203
851 -0.0005037533197633597 -0.0009771862427864493 -0.0011820266480161766
885 0.0016606487933756163 -0.0011151017418927047 0.00122760208333103
764 -0.0008730077416642466 -7.715049110473151e-06 -0.002344686967679524
763 -0.0014482288550024512 0.0008734621185265104 0.0026649192737068545
762 -0.00024055240300173653 0.0018215796554065212 0.000466147410939686
761 -0.0013593199395736787 0.001066224289818546 0.0009096338819251592
765 -0.00033544321456053475 0.001393358765191366 -0.0004604680161109984
770 -0.0004255949026552874 0.0019150944499618204 -0.00010021123820895823
769 0.0007450805128738122 0.0001254233962356471 -0.0019188828993672868
768 0.0011252825588053794 0.001419468769599729 0.000669687233074827
766 0.001357924827620251 0.0018119741782364207 -0.0012847594456090253
767 0.0009588803808157681 0.0010312653430153982 0.0019258884260802249
642 0.0004851382390967949 0.0007950478302222732 -0.00199293895818529
641 -0.0022090413112761005 0.0017299182832185684 0.000807171188986322
852 -0.001870177398202838 0.003989825654594462 -0.0012601395290964524
796 -1.5833908421906365e-05 -0.0008541996568004498 0.0007526985509745778
853 0.0013312330261856893 -0.0006451050630782685 0.0001673385224301307
754 -0.0003718265483061135 -0.0004680449181571312 -0.0011466907932887274
753 0.0005111065973316977 -0.001563782717520017 -7.791553692363594e-05
755 -0.002264449147423726 -0.002526571946120245 -0.0008486394864896188
757 0.0005643985604937864 0.0020886742179919192 -0.0007351933503222703
751 0.000874640371030648 0.00021933985431095443 -0.002632528246262349
752 -0.0010477801948538816 -0.00038852463352596 0.00022137911484419785
750 -0.00048215298673285494 0.00015899064566812006 -0.0027870544615470703
758 -0.0004788784748496711 -0.0035507816996167034 -0.0021643662221265967
749 -0.0010606596852197493 -0.0020997256549297534 -0.0020182487341166796
782 -0.0004123018427937298 -0.0018705116307502706 -0.002179365884374172
784 0.0007955093525630048 0.0006579141125989355 -0.0011363712323534001
783 0.0009589060125216605 0.0017037189396974428 0.0005817940869974139
850 -2.383388439662588e-05 -0.0019272735017909308 0.0019385518228705982
779 -0.0017978997279299376 0.0008920054369481395 -0.0014526569583185162
847 -0.0013863377992282926 0.0023400716034867237 -0.0007231707269387787
848 -3.993871984464114e-06 0.0014704677365070295 0.0008253096558511438
849 -0.0006819548083387056 -0.00020699642189850103 -0.0004637090279915099
845 -3.5220976807144046e-05 0.0006466641918206613 0.0003603660944003857
846 -0.0017170423367872858 -0.0002583438820600442 0.0028487892908572086
844 -0.00023722133424656112 1.6769158137990524e-05 0.00016696264281828126
842 -0.0027169140443908096 -9.91133291148691e-05 0.0006023056645775602
843 0.00015758310148528755 -0.0015146844971656989 0.0015030292225552302
841 -0.0006124947737537134 0.002602725777445222 -0.002093974321328136
781 -0.0016343218620106835 0.0023188432339856504 -0.00012425783648764484
778 0.0013879943598370686 -0.0019503128072295376 -0.0024861173499388647
780 0.0016548382291805385 -0.002289268533642691 0.0027356115596809355
777 0.0005738384350753643 0.0004921247338327495 -0.0023928707517099856
776 0.0001977944000102745 -0.0021490392422612637 -0.00122589988430816
774 0.0020370988824387694 -0.001094716522380164 0.004296170941609788
775 -0.0032137071646868107 0.0007234830830107008 -0.00047720595732072125
771 -0.00017453414200913194 -0.002186754921055623 0.0012086198821391221
772 -0.000497181179038177 -0.000314861341167143 -0.0006365125589808202
773 0.0023943797214944075 0.0005404529016239195 -0.001605188056837109
840 -0.0032608783340960404 0.0001457422581612164 -0.0007737783385641644
839 -0.000971321963308902 -0.0008034922731874638 0.0018419132648233361
836 0.0016208255031447043 -0.0008394565980319939 0.0004189032236086618
837 0.0005610126699409858 -0.0011128885904633321 -0.003829387382248231
835 0.0003654829542334045 -0.0011988077436197989 0.0006337051719584327
838 0.0013306807314639084 -0.003616094841505652 0.0007141916638857067
644 -0.0006060068968151972 -0.0004058753877356178 -0.0004964334933433218
643 0.00106975891905925 -8.589570189250132e-05 -0.0013206286852647945
645 -0.00023549519010670244 -0.001430993611427219 -0.003617992903371256
640 -0.002667885493179985 0.0003859563885231299 0.0013618292533789868
639 -0.00013999606658678625 -0.0019421826826806986 0.0006073681719251899
637 0.0014275030875800334 -0.001129103660346672 0.001179515535625575
636 -0.0038919110967031065 -0.00011843319603882757 -0.0006326083619098309
638 0.0002851588075520918 -0.0019381535989129283 -0.0004844945314591739
791 0.001658851055517691 0.0039010791602913657 0.0008343043320042883
792 0.0008157645250380621 0.0012372809211517646 -0.0023137261541963847
790 -0.0026834119331510657 -0.0005536677155823182 -0.001769904020757235
795 -0.0026221069900189717 0.0020937033030617755 -7.74263785142975e-06
794 0.0005907765317690195 0.003109323048250954 0.0011118248257537514
793 0.001898924374771598 -0.0006895562881671039 -0.0013805897640443386
798 -0.0007852856855659994 0.00044602120432795023 -4.649975299414423e-05
797 -0.0002537943924214243 -0.001014034276118081 0.0015015541582041683
646 0.0007235211877957187 -0.0005874724548196775 0.0010698218778751611
649 0.0005427132615271751 0.0001178181676463164 0.001214165890211988
799 -0.000159106919247769 -2.7903831136427253e-05 0.0017064676879389653
650 0.0013318602018982679 -0.000947149803023952 -0.0014000936689454887
653 -0.0015178203342820838 0.0022997098042921837 0.0008094307149640681
648 0.0009508201279866807 0.00027949658641692805 0.0007946553144570146
652 0.000581618336473647 -0.0007871625837069593 -0.002332530026303269
748 -0.002106325864964693 0.0033503670267948198 0.00030247905884511154
747 -0.0018311663029591282 0.00014828368655677714 -0.0029964095466691043
746 -0.0002041009900182788 0.0004040711769491412 0.000681543171488477
785 0.0014837775574961286 -2.484479709378637e-05 -0.0007632636582261835
789 0.0029639336001330533 -0.001250138787336645 0.0005673441381114376
788 0.0019118801253523723 -0.0005125734730630968 -0.00013313836081367677
786 -0.0008383359601917093 -0.00020038078623954054 -0.00011509201825869633
801 0.00037278345479930755 0.00024424313139085924 -0.00022273730746793846
787 0.0007088673808565318 0.0026858337155389322 -0.0018342418804166872
800 -0.0023366164508709635 -0.0021556676296259295 0.002610920364892808
802 0.0006512374177414966 -0.0014124749653506167 0.0005805572947602768
803 0.0005581803200602419 0.0016986445230976403 -0.0013276861667716807
806 -0.00027639849244745073 -0.0027997397972298666 0.0013721235972025832
805 0.0017566320456451983 0.0005563512345049686 0.00023696526220972974
804 -0.000183153572253112 -0.001094272076481518 -0.0017791091737891637
656 -9.232402542118558e-05 0.00045835637075499885 0.001763039591773525
660 -0.0006542599091839019 -0.0006736366093885258 -0.0006958559372832122
657 -0.0008274448081157814 -0.0020064961402268336 -0.003808979728831177
659 -0.001754431111182816 0.00194387173745811 -0.0012328401244015696
808 -0.0018721950337682624 9.279275093669462e-05 0.0012665651455255323
807 -0.0007513449959674729 0.0005256764401718408 -0.0010560354259426187
811 0.0021570543346718916 0.0026844146404450095 0.000605892191693601
810 -0.001331542627621417 0.0007379902376430176 -0.0006753383778432263
834 -0.0016839138431252643 -0.0020664595782216707 0.000986903897095646
664 -0.001374282693421861 -0.00108454891995794 0.0002663703584902127
667 0.002397706212586197 8.631054890701986e-05 -0.0027181957720918267
663 0.0001936529230765072 0.0023328890490711806 0.000425454556191375
832 -0.0018969670233302692 -0.0005914690855259836 -0.000364689194878385
831 0.0005712756709204587 -0.000964194156923105 0.0014895002742484616
830 0.002132212113561864 -0.0004888340894384538 0.00034536290265035083
833 0.0008127789480726519 0.0012584110669167194 0.0027975758223190436
829 -0.0022517385834632973 -0.0015294019696442786 -0.0015206980548530572
828 -0.0016696665754013882 0.00146635759931249 -0.0014506093205180397
671 -0.001450224309475973 0.002550537877941741 -0.0012999297247867846
827 -2.193299047434491e-05 -0.0005506804729087127 0.00044339094552781934
826 -3.5126271488848616e-05 -0.0004697113876070271 -0.0023520440566360715
704 -0.00046222309840561915 -0.0005016264770639653 -7.829187146721688e-05
703 0.0005354040607501455 -0.0016780346262544816 0.0009016011444437168
634 -0.0012204151605169828 0.0013189297601996755 -0.0006816738701746184
635 0.0009178944784000035 0.001355886102455764 0.0020104764547599673
633 0.0005497859658008327 0.0011108632483736785 -0.00047711364003193905
632 -0.002708219678703494 0.0033139977186372837 0.00018787231716878777
631 -0.00026531402777268536 -0.0002496640147099395 -0.0011097827654467677
606 0.0004340101965264345 -0.0010858238993209644 0.0006479168061867243
605 -0.0003839869846939132 0.0006644723584318319 -0.0002548753452802965
604 0.0010954752422242284 -0.000579443730137047 0.0002856603416712057
603 -0.0021515226526381435 0.0020045064908097636 0.001827538104245558
647 0.00041630615809645896 0.0018757156215949717 0.0005958687919781504
651 -0.004240708910489724 -0.0008251736423090011 0.0002539800600262676
700 -0.0009991036971852567 0.0011535546801905877 0.00042650773297142847
697 -0.001259591672431931 0.0027767416750740033 0.00043771152727679256
701 -0.0011035375196195387 -0.0002765837669334093 -0.0003511136187905225
696 -0.0022972121055006953 0.00020747830745984625 0.0010103156258776255
630 -2.8037506567916482e-05 0.00012079875628370079 0.000603815326408483
627 0.0018633932186257701 0.00018646727292570157 0.0006273591903290117
655 0.00030270360025165863 0.0010473865670034875 -0.0009915546230895157
628 -0.002710205829845661 0.0009701246419675808 -0.003309500976224964
598 -1.2994329226056767e-05 0.0021530274992711362 0.0025422829340127307
602 -0.002874920521131449 -0.000414896473421416 0.0005881352800963674
601 -0.001523005195753546 0.0008796231284689655 -0.0005483981365263602
600 -1.2120154155038438e-05 0.0006838968564961829 0.0014584169114436687
599 -0.001106046107645644 -0.0016191123297312805 -0.0008133411957857951
693 -0.0013665412570896156 -0.00033995975352457285 -0.0019973832504753576
654 -0.0009879676700994104 -0.002039134191836173 -6.740920747209928e-05
658 -0.001911082704343767 0.001243081109233123 0.00208908457318735
662 0.0031754155758830795 0.0013739553935920169 -0.0003295086745946691
597 0.0024213936128168623 -0.0013765095817172776 -0.0008687994379259274
809 0.0018046829876356542 -0.001113375247852003 0.0009736932388321144
812 0.0008223680786381166 -0.005158460434746855 -0.0013661985789729149
661 0.00010343516199743077 0.0015069971743286808 -0.0021047092410734504
813 -0.0012100045751261602 -0.0030264903776107983 -0.00022529571221014668
681 0.0006626538233641444 -0.0012564279579307725 -0.00018673515720410414
685 -0.0005871934463818416 -0.002419011128356675 -0.002555159248370994
665 -0.0009018497948386271 -0.0013010206791459476 -0.00019007938786331016
666 0.0026626247792966525 0.0015351767636314093 -0.0012896428506455966
682 -0.0021659407781631037 0.0020246585230757927 0.0004140306401017393
815 -0.0012839814232223751 0.00043906287817995914 -0.00019134269767443135
816 0.0008689743334690064 -0.00010013263612462586 -0.0002848152162333026
819 0.0017688661211882808 0.003180201113566968 5.622751488210641e-05
814 -0.001101365604767962 -0.0015560633600908212 -0.0008034443069980782
818 0.0009631077164500693 0.00021303125568772482 0.0019450969712095998
817 0.0016048951471984343 0.0010540497500314996 -0.0015730604492247087
820 0.0024180547403383186 -0.0021386215786478083 0.0007522001446434221
821 0.0014317344529913827 0.001190222285725005 0.0010529213801056345
669 0.0008988215381266901 1.1148806911643577e-05 -0.0016042302575771735
668 -0.001006140118589278 0.0014013983643363125 -0.0026750054825021067
672 -4.189247160511802e-05 -0.00017501644264261758 0.0008827131696214595
670 -0.0004344037566281501 -1.4275407549783182e-05 -0.0005036633741504538
673 5.242257979079813e-05 -0.00012051633834857711 0.0009391144897183282
675 -0.00016634971529103744 -0.0031509282967251556 -0.001669318301752514
678 0.0007476970641595119 -0.0011770517857787436 0.0018993715087614407
825 -0.0010402786098767083 -0.0011169327197032336 0.001335870892601443
822 0.004552559100279336 0.0012571680573947284 0.001727952719396447
823 0.000651684660476221 0.00134859340410971 -0.0014306402799539647
824 -0.0003438733997710083 -0.0015044303729418512 0.001506768921069097
674 0.0019083792758708856 0.0008598719800198055 -0.00019104447130494637
738 0.001081709264554386 0.0011203267505599857 0.0015297337508982237
739 0.0010161594998060663 -0.0011176115591299894 0.00046131768319489957
707 0.001564351804000981 0.0015452671150196075 -0.0010039170646717127
710 0.001581818622824709 0.002410452596633367 0.0030282786889834286
709 0.00020006384069356194 -0.0014442936791168226 -0.00044585591680555833
708 -0.0006951118282493098 0.0017039946151790812 -0.0020694757185060965
711 -0.0018804325748320153 -0.0010304806487988786 0.0013494565069050945
706 0.0019178834614108557 0.0004707724676591261 0.0007268666744949814
705 0.0013780297539943288 -0.0020320476998282977 -0.00014855603243853617
702 0.0025872137612050912 0.00045430713516622244 -0.0004405688256854805
712 -0.0020735474235334347 0.0007776560129176417 -0.002005332840446381
607 -0.0003543556390374216 0.0025300744665793357 -0.001551068180946432
699 0.0010729055040910999 0.00047682625003983196 0.001267908089062801
698 0.0017087329849421176 -8.207860828753208e-06 0.0017981204519055306
620 0.0017118080329770677 0.0002529946087490271 -0.0004380346184220418
629 0.0025914113608270922 -0.0004894356032061838 0.0027998876498207498
626 8.335446157099443e-05 0.0023333757765962564 -0.0007680730419066406
625 -0.00027740975673177127 0.0005706295245152777 -0.002236553814381226
621 0.0005449280743433288 -0.0011420337532837715 0.0005569286625294813
624 0.003088765581157606 -0.0002969016726905876 -8.597096681142681e-05
608 0.0004973969680369334 -0.002323411661706377 0.0008632239125535359
610 0.0017454426424820886 -0.0018435306804708835 -0.00097251234965424
611 -0.0012480134706974243 0.0012261893398518044 0.001158602164958917
609 -0.0006723980500697625 0.002425793904292206 0.0014576583968822928
612 -0.002941755659614611 -0.0003801978966190034 -0.002833395537697034
613 0.0009498940962730102 -7.076112440218739e-05 -0.0022209831016782563
695 0.00020506428174072399 -0.0015512328889117403 0.0007525518981794778
694 -0.0030320586136601403 0.00037051481027662326 0.000434213250885272
692 0.00015002447443979904 0.002184678527884146 -0.0025577507939707526
691 0.001928651707513706 -0.0020936060660922476 -0.0015176081442018422
622 -0.00040757399215833915 -0.0015061866999795275 0.00022081341021902825
623 -0.0013718458480579938 0.0011824345560212638 0.0008371906886939983
690 -7.14242631430069e-05 -0.0005560348192939523 2.7835257550029243e-05
686 -0.0010132102316695857 0.0005492456506181505 0.0011133099334272656
689 0.00258551946262891 -0.0014615798054995453 0.000929672027732406
688 -0.0014168894589102771 0.002402035550086015 0.002827901738346658
687 0.00047972426451938714 0.0006955236396280788 0.0013894991143199448
684 0.00262860710090029 -0.0011551647638407814 -0.0003968335433101966
683 0.00030556381459812134 0.001946618515195091 0.0018727980019017589
679 -0.001731774996676133 -0.0003640279936019004 0.0021469147541954003
680 0.0014567120626760317 0.0027062751161984577 -0.0006763474743231101
677 0.003872808135526143 -0.0010837277101829542 -0.0005899776652857722
676 0.0018375404456639278 0.0004258353426944097 -0.0006738349406481748
745 -0.00140416348171669 0.0017069489647773878 0.0008316794185436976
744 0.002092745332719643 0.0014106366143027255 -0.00022993546393524538
743 -0.00020697961517435014 -0.00025468261815307837 -0.0011405593660646497
741 -0.0004862752689877282 0.001224607415081702 -0.002143765557239745
740 -0.0019795329612052994 -0.0022855039335856193 -0.001655130876643057
742 -0.002372033944697878 -0.002250533236874552 -0.0007426042259617581
713 0.0007993316517103901 0.001566184822011565 0.002082803008591794
714 0.0009844714278128257 -0.0012216698677529946 0.0016047400368515627
734 -0.0015010025014783083 0.0011965608380071907 -8.824299694850692e-05
735 -0.000603654130442635 -0.0005055018558118554 0.0015028321670116165
737 -0.0009257783163634274 -0.0017589917422688986 0.0005102194129697553
736 -0.003240407261782158 -0.0014616713276911185 0.0026343097999798064
716 0.0022757532433843666 0.002102768925484126 5.4320103401240866e-05
715 -0.0011023065463637285 -0.00014333467882263548 -0.0005711417859705415
717 0.001412559406184752 -0.0004954688672767091 -3.809478219565077e-05
718 -0.0007890349536527491 -0.0025588708796204355 -0.00200660968933229
719 0.0028296175049493904 0.0013843450145315326 -0.00036110564382723227
619 0.0019071445077323346 0.0009237532881397296 6.120600409827681e-05
614 -0.0004362075309848914 -0.0007655750285340921 -0.0007058787225972284
615 -0.0027480181631392756 -0.00012942394554036967 0.0022132660507166928
616 -0.0005649102003228049 0.0013595203360298274 -0.001758605752970649
618 0.0015005563231972937 -0.0005625474602680414 0.00037636952888980314
617 0.0008392916755504641 -0.001575444066247343 -0.0010535518547879783
733 -0.001980564596981854 -0.0015830557436904936 -0.0015871759452158502
732 -0.0020542875881456564 -0.00019027907458247015 -0.0006934214857233344
731 0.00048797706219507137 6.0586662566336843e-05 0.00131691631273244
721 0.0012868366226520996 0.0011938923346708659 0.0022739327022717505
720 5.030524725060015e-05 -0.000511427309866726 -0.0003129187014588627
724 -0.0003075740908647684 0.00347502625984219 -0.002107205578184978
722 6.395451926160354e-05 -0.0014784963090459496 0.0014986448888685217
723 -0.00032538362349474146 0.0005638453367002241 -0.0010591236494984354
730 0.0031572565435131787 0.0019306192362758092 -0.0006511600707730326
729 -0.0006450691749284156 5.996832163385923e-05 0.0021055983632664345
728 -0.001969712521665669 -4.659131029488422e-05 -0.0024184076034705904
727 0.0005881709309803145 0.001062947688395374 0.001256343975327708
726 -0.00019952653198376463 -0.0011574598403133187 -0.001990966097103989
725 -0.0024140546834751156 -0.0025386992696464277 0.0005049732453749825
295 4.5677569779441026e-05 -0.002580608143252714 0.00039348723761919286
297 -0.0008633809292006857 -0.002480897532807003 -0.00011444554276323276
298 -0.0004327245441699534 0.001627532909273343 0.0015273946001664552
296 -0.00033813075159039454 -0.0039947211889221935 -0.0030150697072774436
283 -0.000876699245239345 -0.002034949943979065 0.0007478797151246066
280 0.00021181908307357165 0.0016356879039475158 0.0015622505941567878
294 -0.0024427344427361253 0.0028105866646130043 0.0007926197549046603
290 -0.0005719219548407613 0.001637545598560704 0.001524078313207027
291 -6.324138619889353e-05 0.0030516485500315764 0.00041124423587931864
289 -0.0016436397047179339 -0.0005666182570442059 0.001221395290890903
270 -0.0010336917354471131 -0.001306281301901126 0.002017643948104065
267 0.00027516971177503314 -0.0013896214736626867 0.000189036405254989
273 -0.0006308592675736151 0.00015517550159919644 0.002587689841457391
293 -0.0010876015498002458 0.0012549010667013156 0.0023846738055433047
258 0.0018504150656188567 -0.0005545108627564351 -0.0024467233816219784
292 -0.000812603861966275 0.0002744793911172136 -0.000989609842031192
259 -0.00025451695261246036 -0.00015518635568461303 0.0015174865731524675
288 -0.00024313951021531446 0.00017478884148842557 -0.0006249751700506374
287 7.233679237450376e-05 0.0009782368357974741 -0.0009076440935104662
286 -0.003479903948632793 0.0016729476104546035 0.00021501635297394562
271 0.0008777294502313806 0.0005738665943000632 0.0020077259819473287
284 -0.000672764046269454 0.0014132048506817873 -0.0024076728168226126
282 -0.0006680668217885188 0.0004790567835210457 -0.0004508278109852641
285 0.0021226902497149787 0.0004901961905608574 -0.0009268675990406739
274 0.00019003586410305668 0.004269757328448458 0.0014908572503413292
275 0.000837517282811742 -0.0011566015882484963 0.00023420279950112544
281 0.0013094483104129384 -0.0019968978118735927 -0.0008918908697235191
277 -0.0011367633651642238 0.0009125211135183936 0.0014224000316234357
278 -0.0003526542134540554 -0.002584162396902506 -0.0004432452690410703
279 -0.0004969961543361721 -0.000854832129780437 -0.0004657840817618468
185 -0.0008019178372478098 -0.0009352165656070807 0.0014469857025846869
186 0.0006371891065529757 0.0006872493182531619 -0.0019437515262598639
182 0.0012262625029909751 -0.001411252506368898 -0.0032850540720796013
181 0.0009865957988857278 0.0018583438170866693 -0.002172172183289522
178 -0.0007079031109410713 -0.00117273008297097 0.0006653988493275362
174 -9.203362617538409e-05 0.0013858678827376868 0.00042749507063476015
172 0.0011405947948234334 -0.0010493023823298319 0.0020368060211348295
171 0.0016449806182267572 -0.0020345607835231764 0.0002895390132590012
422 0.00018581089601373655 0.00014758990805838733 0.00048605348958939205
425 0.0024679657866932573 -0.0007850870131177541 -0.0006756497742450285
423 0.0004086539434354786 0.0003544020446127143 -0.0020886274627989103
426 -0.0025383229860128616 -0.001214989532350065 -0.0018439347370912645
429 0.00016192723238469235 -0.0035015651301604543 -0.002436576180071502
427 0.0029796995562623 -0.0009622368861026046 -0.00020824623332636716
430 -0.0022047103678370034 -0.0007766776927460649 0.0011567883972844683
431 -0.0005916964837825898 -0.0011833380449727193 -0.00023932338280634885
428 -6.296108947606525e-05 -0.0008987746165010863 -0.0010480300090455915
263 0.0007484861559923844 -0.0011327016340940256 0.00032902619840709756
260 0.0019322956638955402 -0.0005919621466815347 -0.0011374957832492206
261 -0.002076311506978936 0.002142607231384619 -0.0023050593890649273
262 -0.0011437141726349802 -0.0023132665743953004 -0.0009980252424087329
264 -0.0008685601468953973 0.00015179241883228525 0.0027007471325123664
266 0.001162654336706847 0.0005971892462915821 -0.0009910962970210756
265 -0.0008734865144052627 0.003154864069372749 -0.00012197353415724401
269 0.0002653454578459491 -0.0001230270964467357 -0.00022628803775001177
190 0.00020662847505977463 9.867573316748403e-05 0.0008660712846011864
189 0.001492061267129777 -0.0006866407075730383 0.00011223561008085984
193 -0.0006847394137368041 0.0016898406035751028 -0.0005979715609295995
257 0.0020370624202259787 -0.0012097811214700498 -0.00057260367610789
187 0.0005878691851626359 0.001913460581955414 0.0014080673196938047
256 0.0006088304998770857 0.0010384177484832366 0.001912845656543493
255 0.0016708859724296411 -0.0018378922072169329 -0.0012526053296051812
254 0.0016152071861104589 -0.0002525238494275636 0.00023425446026466805
252 -0.00020386373513249279 -0.0011707966422748921 0.0023362671393454743
253 0.0012972767491332643 0.0006914988304541155 -0.0013386824214710476
268 -0.0027527019443894687 0.0018231018665978826 -0.0014694655502474735
168 -0.0013533625569001908 0.0013525207384000515 0.0005074482176944821
272 0.00138769157437816 -0.000651492046646975 -0.0017414667109423314
167 -0.0005311097713388361 -0.0011870236892340296 0.0013174834909792175
276 -0.00014701544518658162 0.00027503613581427767 0.0014757021051796672
188 -0.00023204145804451583 0.0016299160821987289 0.0008587198936853975
2 0.0009332380694373842 -0.0011327279048609184 0.002710870485588198
1 0.0011218972486119708 0.0001685029867527352 0.0018606723893749588
191 0.0012357380809143938 0.0006243155651999432 0.0018121178550088539
192 0.0004060934872092501 0.001139631691294032 -0.0019390726176711122
183 -0.001035276071550552 0.0006447470571471725 -0.0016716544481717793
184 -0.0012256600254326854 -0.002418649929700106 0.001283638163699485
180 0.0015768223000883002 -0.000756453717880409 -0.0008910436991635695
251 -0.00040588702475471863 0.0009560981183961438 0.00034852169246995206
179 -0.0009828703493733005 -0.0002318524772770734 0.00033635966290009874
247 -0.001695771017730352 0.001953246202774261 -0.0019931907595144025
250 0.001166680190254016 0.0009304324935454628 -0.0037344539176019324
176 0.0012448720623878088 0.002847816098190307 -0.0005125723607665295
173 6.623852252290422e-06 -5.2757598890975125e-05 0.002329215833721388
170 -0.0005571864396684525 -0.00017718435931700046 -0.0015895578021400503
248 0.0033056567576523425 -0.0010141122773406404 -0.0018840925992596783
169 -0.00019356484905523483 0.0022138920150617373 0.003254524970889934
177 -0.00012368880594068086 -0.0009644723418366729 -0.0003248668604907904
175 0.0008538672818196149 -0.0013327947181243408 -0.00030916314883504677
415 -0.0023662865069570905 -0.0012232448812356204 0.00011494571774056032
419 -0.003270681646842897 -0.001339232706578225 -0.0015917389516163368
437 0.0005535744034878181 -0.0019313441705871627 -0.002272046414569725
420 -0.0005214147777865945 -0.001089699172290929 -0.0006840325724427542
418 -1.1633205136278287e-05 -0.002017249200730955 0.0008563390597150864
417 -0.0005773722432316575 -0.0014571585238664175 0.0019988671318902514
421 -0.0019448940094187808 -0.000896074697073443 -0.00010552628449852954
317 -0.0015201174115900002 -0.0023661128521352422 0.0012268148745431012
316 0.002496401146433028 0.0004337561185344386 -0.0008957714492718504
315 -0.00026298078817910624 -0.001968106486917644 0.0007484965769986018
436 0.0020042126768884663 0.0011193706497065494 -0.002121485895688745
433 0.0015846325128671176 0.0009054585305712135 -6.173090216898896e-05
435 0.0008922231039902108 0.000743354686407428 -0.0007108236243805415
434 0.0016455473104535071 -0.0006848322030745043 0.0009099316700136598
424 0.0012556352736238865 -0.0004055764344229783 0.003131889701310515
432 0.0005488907238049686 0.0003122617438815953 0.003245039848111715
318 -0.0015493975988038655 -0.002920434881459299 -0.00017872698064750201
159 -0.00029054501579471316 -0.0013910458942788344 0.0002686201293616699
158 -0.002121297772241962 0.002626130804360708 0.0015258649220258782
157 -0.001548538740376307 -0.0017720942199528258 0.001597496520369431
160 -0.0010172083719032414 -0.0029946784017859697 -0.001266102748064922
196 0.002671738203533488 0.0012268641611610839 -0.00035445211016692365
194 -0.0005698666575848505 -0.00016573148017503931 -0.00029274303316448135
195 -0.0014456553592433765 0.00161838082977353 0.0025672399519851563
8 0.0004408052279306653 0.0012283557826916667 0.0004479704696857328
197 -0.0006392103800748168 -0.000267138106607579 0.002039572740860765
198 0.00041145568770788285 0.00015238451546840118 -0.0004524542947297765
201 -0.0003749645980363039 -0.0027627382724313377 0.0004911066500593935
202 -0.0005425957434468726 0.004385555118470045 -0.0011189328613476525
199 0.0018289973283266924 0.0017827711919486372 0.0020954508015301582
200 -0.0012787389447737872 -0.0007214484569670479 -0.0003713311780297158
203 0.001239129943223994 0.0005006659072557119 0.0018073838137505148
155 -0.0005804737991607862 -0.00304615166330314 0.0013083229616110438
165 0.0010842325403935303 -0.0005905788432506848 -0.00015862436735971362
161 -0.0019062836546345063 -0.0001880686168515217 -0.0010573547667096007
162 0.0003581671515703686 -0.0005456070911955026 0.0024564890719031233
164 -0.002008391775105036 0.0002512428948648748 -0.0020534808511919775
163 0.0030080756686189517 0.0008541527287662077 -0.0015544724264833156
4 -0.0012533278380159692 -4.3277895683270105e-05 0.0005456019514586706
7 0.0010537376602068693 -0.0020632843578791936 0.0007702616474643991
3 -0.00031478203917437576 -0.0006569597844790257 0.0007663202667917439
5 -0.0017503858813613918 0.0018962791727598872 0.0017789444045270078
204 0.00028125463772456184 0.0004249289973726238 1.0143161452983172e-05
205 -0.0007909289096094783 0.0013469082965070975 -0.0007659107605320656
209 0.0007105502687343864 0.0007896660570574494 -0.0024857116025077024
206 2.6344490790268076e-05 -0.001991201693666155 -0.0002680137057262525
208 0.0020027840542199823 0.0025318490618507707 -0.0003331122629968939
207 0.0002720956964945536 0.002200015728503731 7.637375175214366e-05
210 0.0014068529809644695 0.001433096937618764 0.0005682646164218522
249 -0.0017678370034102603 0.0010047840401982676 0.002268485276845946
246 -0.0011545159100537715 0.00282169667731642 0.00024078732183703568
245 0.0003894103259586861 -0.0029452417275323815 -0.001764098636675416
244 0.0026694857619298145 0.0017187423366992072 0.000995448367624694
166 0.0003261983413405173 -0.002358215331780904 0.0017912910697487825
212 -7.887548837649333e-05 -0.0013642561876274183 0.0002504905548061955
213 0.001681195509391417 -0.0006978485977143322 0.0015503628053886236
211 0.0018048157687642942 0.0001911170218372912 0.00177981631409791
215 0.0014279324921863572 0.003794017485214122 0.00014997284884076776
214 -0.0021619034169791267 0.0016360569611323513 -0.000872976167373069
243 0.0014011320081297846 -0.0004334783833518277 -0.0020162010482202225
238 0.000254678569512438 -0.0001476750403776147 -0.0038774029642104934
239 0.001095802118378408 -0.0015287400044525783 -0.0008723028690517088
240 0.0019172960336028293 -0.0020655314878908607 -7.991812590839737e-05
237 0.0006842071828464686 -0.0011045673326005305 -0.0014245343056171506
241 0.0007786012637017334 0.0005274021174537066 0.0025102908120408635
242 -9.166914940523277e-05 0.0010207891503535046 -0.0031042660676440102
216 0.0013133697195654216 0.00041740400304016465 -0.0007579927420929488
219 0.0007705122869877677 -0.0012970207556165655 -0.0004190064296734519
222 -0.0007647653786929769 0.00018104258733462456 0.002075863064855305
218 -0.0012152803088973769 0.0005821016924156387 0.0011630324637376245
236 0.0004439648837600947 -0.0011154647356805855 0.0009681236400794953
235 -0.001958771392393204 0.0009024605064395854 0.0017376900088517545
231 0.0003929101985477797 0.0010783602795107745 -0.001150544626006606
232 0.0014995024129324014 -0.00015884202069860962 -0.001012389370662581
233 -0.0022861156262007475 -0.0014980962985082801 0.0007121575553123631
234 -0.0008154645744038384 -0.0011375917293840454 -0.0023028498818169155
230 -0.0005525285974250245 -0.0009368891529586006 0.0004009739992143996
223 -2.3197041831305104e-06 -4.6191343397051976e-05 -0.0027751567862057238
226 -0.0006771494991972257 0.00016915236553301268 -0.0002731806833286797
229 -0.0006125176389001238 -0.0024678274003540274 0.00023446327344470324
228 0.0018171052923274518 0.002705362628160575 -6.334877142150303e-05
227 0.0007750162451797273 -0.0007065989910998188 0.0003536540530660337
411 -0.0010960273914048144 -0.0004969200719640854 -0.0002403175767738996
410 0.0031416261084509425 -0.0006359319843490772 -0.00012089897209611569
313 -0.0005317175592473141 0.0014590551171908932 -0.0028761958472989665
308 -9.740507669710885e-05 0.001089443874956163 0.0007672728529029791
309 0.0007842242497117456 0.0015825856326507387 0.0035694610496368297
310 0.00037648567991658806 -0.0003243635718681158 -0.0013841904036623516
312 0.0003190726488677637 0.0005627454652008137 -0.0021466484261817116
311 8.79854697812454e-05 0.0023022380649629125 0.0012310297917003802
439 -0.0019444654709241667 0.002143009019852455 -0.0011581991687540543
440 0.000342989058572669 0.0005031930433410032 0.0020743172270569457
416 -0.001357127139736403 -0.00041347251353615963 -0.0020423574256625246
414 0.0008500323387177351 -0.0012472316027547174 -0.001271140801867884
412 -0.000606598673627255 -0.00017110519206824662 0.0006776005616621879
413 0.001390940681454068 0.0014896886284303248 0.0003893830065160521
438 0.0006165812146825642 0.0004023956275867342 -0.0005643199281601153
314 -0.002466076330093037 0.0007099628480862069 0.0002022605858489938
397 0.003436405874255745 -0.0025965872684237962 -0.0002090387159233294
321 -0.002172846697826421 -0.000585414561025023 3.077255841181368e-05
322 -0.00012666380905100344 -0.0006632237823242549 0.0008938005520939694
323 0.0004803937861045406 -0.0002548958408265272 0.0007592640907382901
319 -0.0024015883117718298 0.0008054266352011853 -0.00016410656509240502
320 -0.0017642850166694998 0.002663393630249806 -0.00018406075325772502
393 -0.0016619668411095596 -0.00016110320601798312 -0.0010806712675401047
389 0.0017218571333018943 -0.0005165393853206013 -0.0004914938257523388
390 0.0010276058330339012 -0.0008816320553030293 -0.0026525336860769456
47 -0.0005184159339849157 0.0020353564425014802 -0.002741873450146868
48 -0.00019121849871984314 -0.0005515992561068377 -0.0008876772255899464
49 0.00042675260864120815 -0.0015116229011433362 0.0008956906568386274
46 -0.002439866518755065 -0.00042873192606630997 -0.0007892644603779101
45 -0.002852923643911836 0.0011379350949375594 -0.0014855710698170818
44 -2.297782098407494e-05 0.003286324966462337 -0.0012211273732852536
43 0.0014779674998282412 0.0015221254843240807 0.001210222007123007
156 -0.0014032596241368427 -0.003009603101857333 -0.003161966664369203
10 0.0007832083603776547 -0.00010533552328767942 0.0007877153302194024
9 0.00029829084232101274 0.0019485659712666927 -0.0016207818421512174
112 -0.00029776668926466865 0.0017772541716328553 0.0013667893650695395
50 -0.0005600189759998732 0.0001020058869091503 -0.002202164212392772
53 -0.0016665423344161268 -0.0011099405132899572 -0.0005712525844743276
54 0.00015118649609915732 0.00087756849472379 -0.00020062351058105165
51 -0.0008933388156894756 -0.0019257255158663007 0.000941257562689013
52 -0.001729735059571296 -0.0006204212291068718 0.001580294997331138
55 -0.00020065968895644623 -0.0013448171540379 0.002906174861386527
104 0.0036594993829875857 0.0032229178880000546 -0.0003655103712160827
56 0.0008922824196430609 -0.001720198621916425 -0.0022448654131665296
152 -0.00028960140555650706 0.00024134854091677855 0.00290604165466831
154 0.0027387102234864196 -0.00048671234938642657 0.0004620078117565984
57 -0.0018725469436609546 0.0012419945449209295 -0.0033648881180000766
153 0.00095179059005276 0.0003952843219357517 0.0008262439449868386
15 -0.0010290386591926487 0.003000679198980254 0.0008487238331909652
12 -0.00034394382382961123 0.0005226144929663462 -0.0013694018140756896
11 -0.000625455733147977 0.00029914476936588816 -0.00043023704843214483
6 -0.0005798788867971012 -0.0017767586320372284 -0.0005485548977949799
13 -0.0014677940961937896 0.0006862841937728002 0.000272810206203171
16 0.0006420151945072746 0.0006392276127420541 -0.00013787796994296073
100 -0.0014678512279855305 -0.0017229714544940537 -0.0009966244472714944
97 0.0007169619180796788 -1.3273385726633963e-05 -0.0004355533828465873
58 0.0014862837633673525 0.0010824656440114311 -0.0020841985288618248
61 -0.002166173549336168 -0.0020251750299772296 0.0007825227724934617
60 0.003974575756391401 -0.0019892805251947973 -0.0008129911915760164
63 0.0020082254348997306 -0.0004953453182591432 -0.0019186613923227373
62 -0.00020561334540200845 -0.002085504312902382 -0.001312639506775426
59 0.00029557008938843523 -0.0018280810700737823 0.001280006790585112
64 -0.0013389737402729831 -0.0002714189972212588 0.0005316829882577253
14 0.000377656372735569 0.0011650039874398924 -0.002704666309150545
17 -0.0025461191905652614 -0.00033312299124243453 0.001858309092424318
93 -0.0009331782166884534 -0.00044829035250063757 -0.0014154721613072012
96 -0.000637111016501457 -0.00427370067756002 0.0008841507177237653
92 -0.0005101138740010354 -0.004233533347113633 -0.001757007532816354
65 -0.0010402023076728107 0.0018582359926015823 0.00017745322762282906
69 0.0009562412776026336 -0.0019229946944254131 0.0010407587236032374
66 -0.0016671627836141079 0.0023171953812273277 -0.002709244243192056
68 0.001622853422227919 0.001374640787430853 -0.000691089526660465
71 -6.877153734677192e-05 -0.0012198070751663454 6.475089820134266e-05
67 0.0013415432626485836 -0.0012938434908668012 -0.00044193579753479826
217 0.0024474790126771694 0.0005042291194621387 0.0012334628036360113
220 6.368946841659606e-06 0.0014046114122826072 0.0010849684789743354
221 0.0014796013956924513 2.2603467754573464e-05 0.0022452722456484378
75 0.000558498583796825 0.002284651856811183 -0.0006992499013722339
72 -0.0002732098081094439 0.0012362983585895563 0.0012052401684400083
76 0.0011529518572319529 0.00044366620431013376 0.001295965755148495
224 0.0005039471266652425 0.0008778824980757401 -1.539254101527943e-05
225 -0.0023875384586075385 0.0019872872302784004 0.0027574058196592694
493 0.00023800917730538944 -0.0011533138342159285 -0.001489482537638411
492 -0.0011729000394237105 0.0003414438113266778 0.001032081015602457
491 7.645590106155438e-05 -0.0007443329627446616 -0.0001609743176672241
487 -0.0004315140180651978 0.0007341551108030722 -0.00029406806609445795
486 -0.002725403010817807 5.44328035750722e-05 -0.0017304399587058663
490 0.002167403623677845 -0.001773787699103745 -0.0002121700228562191
489 -0.0003087892416510068 0.0016030091486626081 0.000774699923064388
299 0.00046376986090928017 -0.003998473587174414 -0.0002929475396335944
305 0.0023768402881034134 0.0005610506113833004 -0.0019407659322461619
307 0.002861833359981245 0.0002826725181032557 0.0017010896423474264
306 -0.0006897111504849324 0.0005146948288652789 -0.00048369099250970306
304 -0.0003554484302069423 -0.0005155294042656766 0.0010025552781259986
303 0.0012207328830167335 0.0007886178615512939 0.0007205672001589508
302 0.0032600247881441197 0.00014965533765997334 0.0018583593503063184
301 0.0006937021468868265 -0.0005415367743209088 -0.0006079143608863041
300 -0.0006642624008022811 -0.0010663720947849098 -0.0011927739882081731
447 -4.3167213721264605e-05 0.001103836227737347 -0.001229354098519761
446 0.0026706444696169332 -0.0022482915924652547 0.0007282934960765406
444 -0.0003397115012927715 -0.003997089320633608 6.005625557721489e-05
441 0.0011089247352951848 0.0014019964984118886 -0.0010049143618269865
443 0.0004920795680157356 0.0030591386651159353 0.000476547227606154
442 0.0008357337298892313 -0.0010150530633489584 -0.0006835937109382921
409 0.001329761267607742 0.0011814459346224239 0.001162793436207738
408 -0.00030211912145087957 0.0002919010407970525 0.0030904137590183275
405 0.002935414815307327 0.0022530280610683043 0.0011093726020930932
406 0.00021331195871259707 -0.0003975250181258682 0.0005494435147341185
407 -0.0013149277895254548 0.0005431179909251351 -0.002419176897179567
404 -0.0011936886959575976 -0.0013554260920044213 0.00011634025603238132
401 0.0039352759754005505 -3.456410314187449e-05 -0.0016348915166135318
402 0.0022525338160720464 0.0018348368979534512 0.0005784524688359527
399 0.0013660480601872826 -0.004250147729902339 -0.0024511841115512885
403 -0.00011260059360015799 -0.0020599690965512818 -0.0012957962800944336
394 -0.0016135394026188883 -0.001241331977668956 -0.00019036315574146162
507 0.0007807751503319481 0.002686584825109422 0.001958194773028036
398 0.0015102863469783601 -0.0013507161771390878 0.0008469641112645321
395 0.0004136552075366893 0.0017183709576926132 -0.0008711804082576384
510 0.0009678671727309316 0.0016247489343625993 0.0014865811583329276
511 -0.0006899095353750511 0.0009448880637919045 -0.0015725620233522984
515 -0.0005722148577930569 0.0023622525888043018 -0.0018672073646920024
514 -0.0005261557140556234 -0.0029197304913407287 -0.00037500280227172506
513 0.0009764522905583329 0.002075573682361322 -0.0016580046788383655
517 -0.0018537600354405941 0.0004437624476142509 -0.0003495295886620616
516 -0.004356847366464127 0.0011622089682281973 0.0006186099028909025
518 -0.0006347506025281616 0.00021620548982143815 -0.001599562682631732
400 -0.00048658396891499485 -0.0008969415457189217 -0.0015133787222603003
328 0.000749779191976658 0.0012252656067901092 -0.0032048861460690185
331 -0.0004178419420425773 0.0017677704174684141 0.0008679460762616522
329 -0.000135591863644223 -0.0014687586809476072 -0.00013647708717310438
324 -8.327037716661498e-05 0.0021983040595054686 -6.995807839934417e-05
392 0.004155540783185277 -0.0019017154948590311 -0.00044192731966135804
396 0.0008092664582711826 -0.0022742002826428537 0.0016089474171419231
325 2.593495270291184e-05 0.001533984450517348 0.0005094591773278641
386 -0.00042778133604344303 -0.0005957055174572128 -0.0005390709807914769
388 8.903294076714009e-05 -0.0025862068190435706 -0.0008922965094784112
391 -0.0027932907728246844 0.0015524245304661738 -0.00027872657008286197
387 0.0017543238995825364 0.002256225907643037 0.0009011023124626561
383 0.002694311100615862 -0.0013065839165537683 0.0032010190833085036
519 -0.0013596113234939592 0.0003066675795019768 -0.0007569684983878369
520 0.00019620232616804462 -0.0022225057780630884 0.00045075204469029206
521 0.00041636037296275 -0.0021966021008740138 0.0008579113603876454
522 0.00017534565176251693 0.0018745751471199925 -0.00080413087276063
524 0.0009228129876879251 0.00043119888381338385 -0.0025512206910148416
523 0.0011097423367650242 -0.0002766201436207883 -0.00033696416757945935
525 -0.0003437056021231145 -0.0009463590327314901 3.71816318740856e-05
327 0.0004369282788577578 0.0019127945512334324 -0.0007753801003973294
330 0.0013839850786975944 -0.002277621789767531 -0.0014679772390380058
326 0.0005773799779923873 -0.00045102250800379775 -0.0008147343919926924
385 0.002546559831944532 -0.0005939435569712919 0.0005519879291375541
382 -0.0017226516003441164 0.0019196157106937417 -0.0009346122885381402
381 0.0011277060976259243 -0.002728653149803874 -0.0004732106524612804
384 0.001811640923576707 -0.000907098805679168 -0.0005005433931280833
378 -0.00023329897586645543 -0.0021471106392442437 0.0006491960596618401
379 -0.0029960419659244343 0.00018084492816641465 0.0017763531084168652
380 0.0029046829771461743 -0.0011574011512295824 4.372631484341751e-06
376 0.0030052500243812614 -0.0022625672542314046 0.0004069752110415947
375 0.0015867555687726729 -0.0014367661809605392 -0.000157441420657459
377 -0.0019860965718633762 0.000882423390578716 -0.0004686544624039426
142 -0.003177330967386759 4.29616425108407e-05 -0.0002924857584843767
143 0.0021432526231102253 0.0001555419056005944 0.0002692238944966576
40 0.003275489368314806 0.00024934947561782404 0.0005851456292729925
41 -0.0014628077426796862 -9.598824222824398e-05 0.0013337353679090857
113 1.4236381589487158e-05 -0.0014219745527551783 -0.0006034115523548551
116 -0.0011318323117406987 0.00026581347781340164 0.00247761499852476
117 0.000492547782045962 -1.9211991806684513e-05 0.0020523123374935185
114 -0.001315142511673599 0.00414349526998259 0.00041410063022185125
118 -0.0010462175715351592 -0.0020504007898040355 -0.003129054143289397
115 -0.0015517464124019445 0.0018834546916054724 0.0032653559878416823
111 0.0012148693941039014 0.0014102500734233078 0.0026208964655693528
110 0.0002614227482920212 -0.0001931025278007979 -0.0033812111766785146
109 0.0003530921710489832 -0.0005838243286712687 0.003001918548473576
107 0.00023713995037512775 -0.0012308476811244713 -0.0018686971984790603
106 7.952745401679447e-05 0.0007561265544130054 -0.00040486888597960393
108 -0.0012727826662665058 0.0021981128989766816 0.00427941606757187
105 0.0010624301248298666 0.0008519911247003289 -0.0017202889768707641
34 0.001282234239204842 -0.0016578612935136624 -0.001971876010013993
38 -0.0006663663284102251 -0.0026334271809 0.002289555239255143
39 -0.0005636722886058904 0.0006643662564512744 -0.0013772194549376495
151 -0.00012167387016066248 -5.662352007204113e-05 0.002623537974083452
42 -0.00018206300041177076 -0.00037422010817807927 0.0005390980039680423
35 0.0005272481145067824 7.202402014713575e-05 0.0005319646045975085
150 0.0023311924155017877 0.0023424051730150577 0.00034434278395068673
124 0.0010684217119627242 -0.0016843116785897753 -0.000203553576773091
120 0.002980154985611237 -0.0004980982966857645 -0.00014337443969006099
119 -0.0033269748298727455 -0.00016240374722036513 0.000717628500727484
123 -0.0003803404147705217 0.0012987711990422768 -0.0023650628572332573
121 -0.002330193124401949 0.0011483734411092048 0.002114640395807811
103 -0.0004085319278388132 -0.0017542052487484411 -0.0003311982502070863
24 -0.0006569291268494794 -0.0003373207093827622 -0.0011327831411572567
99 0.00023680732067259973 0.0005579604980010225 0.0020926602917075198
102 -0.002493425011096128 -0.001933950273185964 -0.0007194097501044939
101 -0.0008232843646241886 0.002301373346429975 -0.0007108155783625894
98 0.003417422668603323 0.0013841431694657626 0.00398252769828856
30 -0.0016222181406435696 0.0001847744232127002 0.0010036975846044634
27 0.0008889048876437821 -0.00044814961735406507 -0.003198974137134097
31 0.0002499590842316356 0.00041039886714959705 2.0435994499705233e-05
19 -0.000651183863269293 7.370588232992852e-05 -0.0009772219164448737
18 0.0007225118244277585 0.00020058828300681495 -4.1663814408910696e-05
21 -0.00039004966437787374 0.0016864677469066727 0.00019679479890724665
20 0.0025232134861393135 0.0004694035437444748 0.000376296022556366
95 0.0002578679103244797 0.0007217634370064001 0.0029764827454891066
94 -0.00048202764704475507 0.0015528471105952883 -0.001490859920710441
91 0.003896393075352612 0.003557151692599482 -0.00024194766910151416
90 0.0009923397671356923 -0.0002688690971041788 0.0010493925533391483
89 -1.408036173067108e-05 0.00024909218653015636 0.0015106936871133842
86 0.0010138798393217565 0.000974774156056598 -0.0012164673316245162
70 -0.00034836118799972494 0.0007245534938867182 -0.0010663684835034361
88 0.0002218744578504938 -0.0018979553119818039 0.0006627310407537178
87 -1.22954367437415e-05 0.0006506631267858363 -0.000859301426299364
84 0.0003957353693686225 0.0026256364052297644 0.0007592565648739235
85 -0.0030507820971769546 0.0002771175956233338 0.0007435626904158759
83 -0.0005151464753022939 0.0009597686395449412 0.00021637070935163127
81 -0.0012976224973326614 -0.0009333637845022883 0.0007772496683468571
82 -0.0011345624448349588 0.0016078260821739473 0.00043713605156430737
80 -0.001779821317973738 -0.0004564138108414137 -0.00028276410499361056
74 -0.0006568825840836219 -0.0007080197916250043 0.0035372464452534855
73 -0.002196285552711788 0.0009648430054977823 -0.0013234308961444362
79 0.001567475147353135 -0.000401631884377997 0.0005364290197824731
77 -0.0023531204228836866 -0.0013637147732357894 0.002957335347789586
78 0.00039086172870518956 -0.0011654253465819022 -0.0009231411933029104
596 -0.000769733192008833 0.003654054778823007 -0.001394158665064645
595 -0.0024905586944852696 -0.00168984952291778 -0.0014182964923449234
594 -0.0004428311710390924 -0.0002020237209790276 -0.001149392282493067
494 -0.0001654324263421409 0.0004266746172874663 0.0006069996500675441
495 -0.0003532074780719674 0.0026143946494282906 5.982216401421612e-05
488 0.0015015395131809574 -1.4057606635394307e-05 -0.0017909863633230624
484 -0.0007301799327684092 -0.0015500834446486912 -0.0007481004099426172
485 -0.0024006754386412506 0.0010735258300042792 -0.0007448983231142462
482 0.001840629128781725 -0.003947915200213482 7.098784883224888e-05
483 -0.002036783650676015 -0.0008096771664788055 -0.002090774587079643
479 0.0006340734279816502 0.0026742623361106074 -0.0006885178403040902
481 -0.00012281220716983335 -2.522823725691691e-05 0.0010790322291758109
480 0.0007508991159582706 0.0013942398661613 -0.0008176480737096857
476 -0.003211871870658572 -0.0009754057962554315 -7.870928832032852e-05
347 0.00048432703597682644 -0.002502672445100279 -0.00011967714796674346
496 0.001530863901048301 -0.0005978565265145229 0.0005799226597215093
348 0.0011227243255309666 0.002996249234115323 -0.0013549408786950297
497 0.0014235183325131235 0.002965905016538239 -0.00030435013466455614
500 -3.637666909003432e-05 -5.961722851842972e-05 -0.000859127202508378
503 0.0026666926887759985 0.00022021732174541474 0.00236576476245564
499 0.0016516994932460375 -0.0007653286175085721 0.0028361035841016694
502 0.000367409377827352 0.0005966156949170731 -0.00031556458893605656
501 0.0012495079697816655 -0.0008846752689018996 0.0018699439766297833
504 -0.003469364211423027 0.0027632631222156514 0.0005910310499185622
505 0.0014195646291093422 -0.0010559413633399084 0.003200650794318328
478 -0.00019634398013791102 -0.002018311226207636 0.0014064731405486444
477 0.0006522436843374715 0.0009250525813615745 8.857447120998348e-06
506 0.00029594143656660397 0.0016414834825223582 -0.002300764334260691
474 0.001945840212729051 0.00014996204974248402 -0.0026929391502241357
475 0.001694095665118847 0.001456789790328856 -0.0008893577544840309
445 -0.0015178701833959331 -0.0008905423583412586 0.00017785321614424498
346 -0.0015128203363293771 -0.00023659253651238025 0.0019657265274949627
349 0.00010595907824722183 0.0008246688462198567 0.00039572359707613935
353 0.0010335459487182275 0.0018955627603811287 -0.002066668811610921
351 -0.0004890227013977821 -0.0006027550002729617 0.0021600414578994993
350 -0.0015593116915570977 -0.004213742316479761 -0.00151714496885728
352 -0.0006614995248547251 0.0020328922539460913 -0.0009906883646103736
354 0.0007671621065526741 0.0013752255389262063 -0.0004656521372600168
356 -0.00035903208585481606 -0.0005594309757508639 0.0010481783074135812
355 0.0018430591024806875 -0.0015244844135022296 0.001439544375696504
359 0.0023310385079529008 -0.0008650408363690097 0.0008167546270435632
358 0.0001487563240744924 0.0002787437418271712 -0.0008802895811214437
512 -0.0006071964134800501 0.0015669020496610255 -0.0021728303246490357
508 -0.0010686373796969851 -0.001154379166099165 -0.0010717894871590343
509 0.0011662129839495267 6.680432503065089e-05 3.41784006203965e-05
533 0.0013905921570891472 0.0003131319592651428 -0.0018873529355227649
536 -0.0030066436738468093 -0.0012615257324210972 0.0007418533414096902
534 0.00010669913406165735 0.00025224954350181264 0.0005163152862934853
530 0.0007904113968492652 0.00046359183131240765 0.0010544167860929302
339 -0.00245475152763942 -0.0010582856732757598 -0.0007099584676769098
335 -0.0008074888251810064 -0.000870514511085415 -0.0015064722506609326
336 -0.002621010457888173 0.001569486415072058 -0.0010504519879632377
337 -0.0024280295172130666 0.0010595817219516811 -3.13398171734955e-05
332 0.00039887053701410566 0.001344823343548439 0.0009977969555425422
333 0.0016512427378819533 -0.0007692289003991854 0.001170159709130334
340 0.000313028556659395 0.0012315166171438787 -0.002537585048030325
357 3.7983222456358353e-06 0.0011724558686275973 -0.002815346552101678
360 -0.0010705794484324948 0.0020524647322179516 0.0017808341557635236
361 0.0011282240353779466 -0.00021028978168670915 0.0028014120791958128
367 -0.00037493140121052965 -0.0009202563459913732 -0.0025986659300342254
362 -0.002248079280580531 0.00020143311273388727 0.0034400006525755955
363 0.0032515097000750362 -0.0009121871528396282 -0.0006928999064109559
364 0.00013497531494746762 0.0003168297025908872 0.0019694295755691314
365 -0.0007563313791144196 -0.0014039996639160564 0.0014384175782236235
366 -0.0012516429500174574 -0.0007789925992819509 0.00019955210454943392
370 -0.00024530179252563525 -0.002733511894162163 0.0021677556366881765
532 0.00030306640493130854 -0.00027909895228605576 0.0018135732145979173
369 -0.00011957220467860428 0.0008477004838198727 -0.001783549308240468
526 0.0008191930089624321 -0.002162603060618256 0.0009526590393925006
529 0.0015001252974867943 -0.0017685887199527758 0.0020134274411703203
528 -0.0006018473353683646 -0.0018506703343893747 0.0009698938831527507
527 0.0007190228349233891 0.001938519156288175 0.0001598966235131837
531 -0.0003176525437677196 0.00021329675702202035 0.00018529055134810358
334 0.0018093593678130762 -0.0011501192162142178 -0.0014923989038373034
368 0.003714035709283171 -0.0026748044237780424 0.0026896361938473744
374 0.0024553608912817335 8.328249084916487e-05 0.0009193756225443822
371 -0.0018411618342527268 0.0024709992179953737 0.0005380743259425031
373 0.0017874261325021654 -0.0001774269893199098 -0.0009664491815705945
372 -0.002784314972993939 -0.0011046338848789013 -0.0026620161964216985
144 -0.001721606183710335 0.0005456987158180355 0.0006519301446520374
145 -0.0033193817360508086 0.00164357363183544 -0.0007414667072434731
146 -0.0005844244130169124 0.0007777967820693727 2.2016374740197532e-06
141 -0.0005823936605257945 -0.0003517501447398178 0.001853019509656114
139 0.0012094992836183445 -3.1633023172173585e-06 3.3244119171435777e-05
140 0.0005490342033693023 0.0015211618832097888 0.001984867050222282
138 -0.0027627064699812954 -0.002150030505135471 -0.00037448337271731144
37 0.001360554768871884 -0.001004230036439212 -0.0016439695145433694
33 0.0007645715216136164 0.001774965244972059 -0.00040685685840900505
36 0.0009151096545932786 -0.0017583468859073345 0.00044300316840183124
125 0.0003533480248877185 9.105297540995527e-05 0.0009226128629041355
122 0.0007876972512936533 -0.001045370544247894 -0.0002616348972005693
137 4.149941089009551e-05 -0.00022339503148128225 -0.0013059273165429933
23 0.0018509829198031526 -0.0007331099037523499 0.00022420576121017034
26 -0.0015321998299528412 3.115756027277064e-06 0.0015947522442164538
25 -0.0012018215183489675 0.0007739732407080218 0.0005436447344178549
29 0.0004571693428821953 -0.0008153380272604444 -0.0012788489088999774
28 0.0012022639309889078 -0.0006992740156900096 0.001832698994783036
32 0.0008560823418322132 0.0008657741332603103 0.001416830289326992
128 0.00114135279360258 0.0018509050454437602 0.002568844259906879
129 0.0006695027902243108 0.00229889691092996 0.0011015855859251738
127 0.00027569410672591244 0.001424917976456966 0.0006370935668904313
126 -0.001357459793904254 -0.0002431377502000763 -0.0024068672786117587
22 0.00115093678520979 0.0014286683635243622 0.00016762587156195764
592 0.00089020107710588 -0.0004970908044126743 0.0013466546955388321
591 0.0016657480069842585 0.0003280296621807348 -0.0010402317166681278
593 0.00047985893369141303 0.00023423331889976264 -0.0009604097996399021
558 -0.00012517790582105214 -0.0007782712882479993 -0.0009272665934413366
555 -0.001021977408038946 0.0050601744319835025 0.0026514465650439387
556 -0.0008108586738315897 0.0010096541390448542 -0.0007546729401290222
554 0.0016969930336712565 0.0031526591287142102 -0.0006233661940541427
557 0.0002558773779072917 -0.0018459697649081772 -0.0022073310712808956
553 0.00019619486192432893 -0.00024933124553718633 0.0019611699514163407
552 0.0006849776193739301 0.00011350499652224412 -0.0020361656773756494
498 0.00021920124551947338 -0.0009088166903654053 0.0035012945825432023
456 -0.0007401842342575486 0.0007969014538752419 -0.0006454016176374193
551 0.0005580783959833278 -0.001154626574888131 0.0009712395998718464
550 0.0013533160192874133 -0.0007647496484157836 0.0010606331850709504
547 0.0012073922694208492 0.00027578331844047395 -0.00274949870962353
548 -0.002289587736771251 0.0007937926731907082 -0.001727649774884013
545 0.00034544548617981293 0.0012183783109823518 -6.783469413854955e-05
549 -0.0008661525132013228 -0.0010739228846718654 -0.0003794121863240233
546 -0.0023695410591189027 0.000905921008104015 0.0008135634620683625
471 0.0004254805625651339 -0.0011801826257111098 0.0012748553512752043
472 -0.0019208690276678324 0.001924504049587238 -0.0029874274298634027
473 0.002769129631500236 -0.0006147504881599374 8.040071561221018e-05
344 0.0016650578234378571 -2.3229671256434623e-05 -0.00030871090980723196
345 0.001220411831988438 -0.0003035199891463701 0.0017863270110973458
342 0.0022630418138182415 0.0005068620934703189 0.00016451416714574512
343 -0.0010500280950336905 0.0033935316316157016 0.0017391045317372204
455 0.002844283791152612 0.0007810175356442871 -0.004232267592395178
454 -0.0020087799255172753 0.0011865493936404742 -0.001778208612149211
450 0.00021942601891735628 -0.00034856922749481093 0.0003849763216391313
452 0.00014325780716013733 0.0012604460874910172 0.0008301815838112324
453 -0.00137854648058217 -0.0022595554026985714 0.0013484752590093082
451 0.0008124056166545048 0.0002939157108752232 0.0016046864038952618
540 0.000945610897763752 -0.0011882961309182868 -0.0004221952533181115
541 -0.0022010762754224055 -0.0006191988571822564 -0.0040462600380280255
544 0.003485549541865845 -0.001961502124422923 0.0015153983914940896
543 0.003822298786759467 -0.0005859255383815917 -0.0005155728182380406
542 0.000891542353041716 0.0007626585672483955 0.00017189354636750208
539 -0.00193535702074672 -0.0007865168618929067 0.0010942077699150328
537 0.002701925421597452 -9.808997973698193e-05 -0.00032019695973248394
538 -0.0004636578223357047 0.00013169993738273414 0.0014688736763955902
535 -0.0009760351138386356 0.0014120415195933236 -0.00021985855919941016
338 -0.002809094331950903 -0.000988990575057903 0.0009046542755067403
341 -0.000307971838057094 -0.00012567473166853857 0.0028917397980101718
449 0.0003168478420383415 -0.0010747235182054114 0.0003859498990690958
448 0.000552587835229719 0.0005711020002564297 0.0024775731700066193
147 -0.0011277179342923196 0.00055422221664507 0.00122396502360717
148 0.0018210488070589182 0.00022148258464030362 -0.00022462295055252407
149 -0.001983123840538427 0.0018010490030578225 -0.0004611593024577153
133 -0.0007557814614482701 -0.002433553483268318 0.0012404785175409846
134 0.0014194149886446533 -0.000231496861778355 0.00024758276443622454
136 -0.002785709471191461 0.002957292879307884 -0.0010727222840966359
135 0.0017660985005972833 0.003207646962188299 -0.0008115725811150521
132 -0.0006268322253312986 0.0011993906831699588 9.390960448439953e-05
131 -0.000634933161161328 -0.0013438050590548149 -0.0015464173910322626
130 -4.979704186773673e-05 -1.9480998891406693e-05 0.0004093731514731685
590 0.0004336648945573275 0.000373696915421229 0.0012770529787669352
559 0.0005654924575606748 0.0005559375394230871 -0.0015407671019732117
560 -0.0007454640688389014 0.000645473256787077 -0.0025209646773314163
589 -0.00022953940752971187 0.002442100448970546 -0.0007970217341948271
588 -0.001077229819264575 -0.0029781033935077283 -0.001099991240171068
562 0.001256879455720805 -0.0004458661523912324 0.00029430032031218807
561 3.1137922044756664e-06 -0.0005422917917802593 -0.0013256241778395069
565 -0.0012109937417146186 0.00018463385123042428 0.0007785512080334241
587 0.0014118384482553386 0.0016057443671529754 -0.0013431268544385234
586 -0.0007285429802761007 0.0021211627466369352 0.0020464858670009283
457 0.0005939410154528556 -2.5696692384552977e-05 -0.0002930729889415063
563 0.0024556195071103724 -0.0012033642762616327 0.0011357925987860002
566 -0.0008167871349341573 -0.0009841159714071121 -0.00018281806403661614
467 0.0012468529093979054 -0.001862808243577721 -0.0021054155419785734
470 0.001431043916050807 -0.00013918567244706315 -0.001448063519551318
466 0.0019007649728645351 0.0018035800253424661 0.0014808300390119803
468 -0.0025248895597636384 -0.0007632993570079231 0.0013151032416074712
469 0.0026001712829909224 -0.0004103452455252664 -0.0014436813598005039
458 0.003101515699650598 -0.00012574881613509317 0.0011710582066496347
459 -0.0013636645160912736 -0.0013336052837825483 -0.0013935766574455274
460 -0.000401975235907239 -0.0012188184792504817 0.00019049840550273278
461 -0.003901385872287739 -0.0011841321665163902 0.0015621413524509213
462 -3.317635604387396e-05 -0.00019038091166067195 0.0005343772775258891
463 0.0006540048419998767 0.0017420379962677997 -0.00143123958757768
464 -0.003989328940329693 -0.002325799193037973 -0.0019991314571165472
465 0.0027475835265254557 0.0007091968759395696 -0.0019266873082287091
564 -0.0013351183003332133 0.0006243536701318653 0.0005740164561693552
584 0.0009574422162068818 0.002350781806655881 -0.00037142572324924087
585 0.0009751061253285053 -0.001357620026410978 -0.0007789823673014227
583 0.0028439232853965284 0.00028018548172388053 -7.801044042764297e-05
568 -0.00026361423709031734 0.002272107201897625 -0.0018994889464563599
567 -0.00035955432506065536 0.0020210645458571177 0.0006083454400921203
571 0.0023748971531833436 -9.794889352325101e-05 0.0008062001097086879
570 -0.0008908445265983084 0.0009914069458857324 0.002824724055652685
569 -1.917308402684607e-05 -0.00010733308993583643 0.0011776653656615326
572 0.0026305401672004854 -0.00018509999821243148 0.0005540433862923613
573 0.0014002559370952005 0.0001972806657849983 -2.858528147706873e-05
574 -0.0010535849443263888 0.00021635601854906762 -0.0011651801916294738
581 0.000850046129475085 -0.0011725617329392704 0.002914367511481293
582 -0.0011366162305874543 -0.001928787933406697 0.0006489901001321662
575 -0.0005544793316883247 0.0015355403520030573 0.0003632429887267641
580 0.0007134252377188822 -0.0025923695020757327 -0.0005194740596167877
579 0.0027037829274643675 0.00047448432536645395 -0.000734273431753976
576 -0.0011828896731902367 -0.000586841060217081 -0.0015076825457335079
577 -0.003272189758748728 -0.0006572040319168879 0.0017963194524191351
578 0.0018042580796519174 0.0007787804927433247 0.000928347916603544

Bonds

1 3014 876 877
2 3015 876 878
3 3006 877 879
4 758 877 878
5 2963 881 883
6 679 881 882
7 3027 881 283
8 3027 881 284
9 1697 880 881
10 2972 880 882
11 2971 879 881
12 509 879 880
13 3007 878 879
14 3008 878 880
15 2776 873 874
16 3020 873 875
17 3021 873 877
18 3022 873 878
19 3016 874 876
20 3018 874 877
21 3019 874 878
22 3023 874 875
23 3017 875 876
24 1487 875 877
25 1599 875 878
26 3001 870 871
27 3002 870 872
28 3003 870 878
29 3005 870 873
30 2277 889 891
31 2279 889 892
32 2525 889 890
33 2947 862 863
34 1259 862 864
35 2948 862 865
36 2955 862 866
37 2970 866 867
38 2994 866 869
39 2995 866 870
40 2996 866 868
41 2839 863 885
42 2949 863 864
43 2950 863 865
44 2952 863 867
45 2860 863 866
46 2954 865 867
47 2093 865 866
48 2957 865 869
49 2959 865 868
50 2997 869 870
51 2999 869 871
52 3000 869 872
53 3004 869 873
54 2523 888 889
55 2524 888 890
56 2529 886 888
57 2817 886 887
58 3027 886 270
59 2964 882 883
60 2965 882 884
61 3027 882 283
62 2837 883 885
63 2961 883 884
64 740 884 886
65 2838 884 885
66 3027 884 283
67 2998 868 869
68 2491 868 870
69 3009 868 871
70 3010 868 872
71 2960 867 883
72 2962 867 882
73 2966 867 869
74 2967 867 870
75 2968 867 868
76 2969 867 871
77 3027 867 281
78 2905 871 872
79 3011 871 873
80 3012 871 874
81 3027 871 281
82 1003 872 873
83 3013 872 874
84 2278 890 891
85 2280 890 892
86 2155 891 894
87 2276 891 892
88 1230 891 893
89 2201 856 857
90 2820 856 858
91 2822 856 859
92 2823 856 860
93 2527 855 888
94 2528 855 889
95 2549 855 859
96 2550 855 860
97 2559 855 856
98 2560 855 857
99 2526 854 888
100 2539 854 855
101 2558 854 856
102 2830 859 860
103 2831 859 861
104 2832 859 862
105 645 859 863
106 2826 858 859
107 2827 858 860
108 2828 858 861
109 2829 858 862
110 2943 861 862
111 2944 861 863
112 2945 861 864
113 2946 861 865
114 2833 860 861
115 2834 860 862
116 2835 860 863
117 2836 860 864
118 2821 857 858
119 2824 857 859
120 2825 857 860
121 2353 857 861
122 2951 864 865
123 2953 864 867
124 2956 864 866
125 2958 864 868
126 2986 760 761
127 2989 760 762
128 2990 760 763
129 2991 760 764
130 2984 759 760
131 2985 759 761
132 2987 759 762
133 2988 759 763
134 2973 756 757
135 2974 756 758
136 2156 893 894
137 1388 892 894
138 2224 892 893
139 2530 887 888
140 2531 887 889
141 3027 887 270
142 2532 851 852
143 738 851 853
144 2533 851 854
145 2534 851 855
146 2547 851 860
147 2554 851 856
148 2818 885 886
149 2819 885 887
150 2858 764 768
151 2906 764 766
152 2977 764 765
153 2976 763 764
154 2993 763 765
155 2975 762 764
156 111 762 763
157 2904 761 844
158 912 761 762
159 2510 761 763
160 2992 761 764
161 1451 765 767
162 2857 765 768
163 2905 765 766
164 3027 765 281
165 2582 770 775
166 2589 770 774
167 600 770 772
168 2640 770 771
169 2903 770 843
170 3027 770 276
171 2579 769 847
172 2641 769 771
173 2848 769 770
174 2849 769 843
175 2850 769 844
176 1682 768 769
177 2854 768 770
178 3027 768 281
179 3027 768 277
180 2851 766 769
181 2855 766 767
182 2856 766 768
183 2896 766 840
184 2847 767 769
185 2852 767 768
186 2853 767 770
187 1040 642 643
188 2606 642 644
189 2864 642 753
190 2604 641 643
191 2862 641 642
192 2863 641 753
193 2866 641 752
194 2873 641 754
195 2874 641 755
196 2535 852 853
197 2536 852 854
198 2537 852 855
199 2548 852 860
200 2555 852 856
201 2556 852 857
202 2303 796 797
203 2347 796 798
204 2368 796 800
205 2562 796 849
206 2564 796 799
207 2565 796 852
208 2566 796 853
209 178 853 854
210 2538 853 855
211 2557 853 856
212 2840 754 755
213 2844 754 756
214 2875 753 754
215 2876 753 755
216 2845 755 756
217 2978 757 758
218 2979 757 759
219 1459 757 760
220 2980 757 761
221 2841 751 754
222 2842 751 755
223 2867 751 753
224 2878 751 752
225 2424 751 757
226 2884 751 758
227 2885 751 756
228 2662 752 754
229 2843 752 755
230 2868 752 753
231 2883 752 757
232 2886 752 756
233 898 750 751
234 2877 750 752
235 2981 758 759
236 2982 758 760
237 2983 758 761
238 1008 758 762
239 2880 749 750
240 2881 749 751
241 2882 749 752
242 2191 782 784
243 2281 782 783
244 3027 782 269
245 2163 784 786
246 2179 784 785
247 2180 784 787
248 2181 784 788
249 2178 783 786
250 345 783 784
251 2192 783 785
252 2193 783 787
253 2541 850 851
254 2543 850 852
255 2545 850 853
256 2546 850 854
257 2187 779 784
258 2285 779 782
259 2287 779 783
260 2291 779 781
261 2317 779 780
262 2551 847 851
263 2568 847 849
264 2570 847 850
265 2585 847 848
266 2552 848 851
267 2553 848 852
268 2573 848 849
269 2574 848 850
270 2540 849 851
271 2542 849 852
272 2544 849 853
273 2567 849 850
274 2575 845 849
275 2586 845 847
276 838 845 846
277 2378 845 848
278 2571 846 849
279 2572 846 850
280 983 846 847
281 2627 846 848
282 2584 844 847
283 2625 844 846
284 2846 844 848
285 2889 844 845
286 2621 842 846
287 1778 842 843
288 2633 842 844
289 2637 842 845
290 2583 843 847
291 2624 843 846
292 2888 843 845
293 2895 843 844
294 2632 841 842
295 2887 841 845
296 2893 841 843
297 2894 841 844
298 593 781 784
299 2282 781 782
300 2283 781 783
301 3027 781 164
302 3027 781 161
303 3027 781 163
304 2284 778 782
305 2290 778 781
306 2315 778 779
307 2316 778 780
308 3027 778 276
309 2188 780 784
310 2286 780 782
311 2288 780 783
312 1083 780 781
313 3027 780 163
314 2289 777 781
315 2312 777 778
316 2313 777 779
317 2314 777 780
318 3027 777 163
319 2308 776 777
320 2309 776 778
321 2310 776 779
322 2311 776 780
323 2321 774 776
324 2322 774 777
325 2323 774 778
326 2577 774 775
327 3027 774 276
328 1682 775 776
329 2318 775 777
330 2319 775 778
331 2320 775 779
332 2569 775 850
333 2576 775 847
334 2626 775 846
335 2580 771 775
336 2587 771 774
337 1206 771 772
338 2638 771 773
339 2639 771 843
340 2324 772 776
341 2578 772 775
342 2628 772 842
343 2629 772 773
344 2630 772 843
345 2636 772 774
346 2325 773 776
347 2326 773 777
348 2581 773 775
349 2588 773 774
350 2631 840 842
351 2890 840 841
352 2891 840 843
353 2892 840 844
354 2635 839 842
355 2898 839 840
356 2900 839 841
357 2901 839 843
358 2902 836 840
359 1727 836 837
360 2928 836 838
361 2929 836 839
362 2897 837 840
363 2925 837 838
364 2926 837 839
365 1033 835 836
366 2695 835 837
367 2696 835 838
368 2697 835 839
369 2698 835 840
370 2634 838 842
371 323 838 840
372 2899 838 841
373 2927 838 839
374 2333 644 646
375 2594 644 645
376 2595 644 648
377 2590 643 644
378 2591 643 645
379 2592 643 648
380 2593 643 649
381 2605 643 753
382 2611 643 795
383 2334 645 646
384 2337 645 647
385 2596 645 648
386 2597 645 649
387 2603 640 643
388 2859 640 641
389 2860 640 642
390 2861 640 753
391 2865 640 752
392 2871 639 640
393 2872 639 641
394 2919 639 748
395 2921 639 746
396 2610 637 648
397 2869 637 640
398 2915 637 638
399 2916 637 639
400 2910 636 637
401 162 636 638
402 2911 636 639
403 2914 636 640
404 2672 638 652
405 2870 638 640
406 2917 638 639
407 2918 638 748
408 2920 638 746
409 1350 791 792
410 2160 791 793
411 2292 792 793
412 2293 792 794
413 2158 790 791
414 2177 790 792
415 2302 795 797
416 2346 795 798
417 2561 795 796
418 2563 795 799
419 2297 794 797
420 2298 794 798
421 2301 794 795
422 294 794 796
423 2295 793 794
424 2296 793 797
425 2300 793 795
426 2342 798 800
427 2343 798 801
428 2344 798 802
429 1033 798 799
430 2299 797 798
431 2304 797 800
432 2305 797 801
433 2306 797 849
434 2307 797 799
435 2294 646 792
436 2331 646 647
437 2335 646 648
438 2336 646 649
439 2152 646 650
440 2341 646 795
441 2600 649 650
442 2602 649 651
443 2608 649 652
444 2609 649 653
445 2612 649 795
446 2361 799 800
447 2362 799 801
448 2363 799 802
449 2614 799 803
450 2619 799 849
451 2345 650 798
452 1351 650 802
453 2613 650 799
454 2615 650 652
455 2616 650 653
456 2617 650 654
457 1621 650 651
458 2366 653 802
459 2618 653 799
460 2655 653 654
461 2656 653 655
462 2657 653 656
463 2660 653 657
464 2598 648 649
465 2599 648 650
466 2601 648 651
467 2607 648 652
468 1393 652 653
469 2652 652 654
470 2653 652 655
471 2654 652 656
472 2665 652 748
473 2879 748 750
474 2922 748 749
475 2923 747 748
476 2924 747 749
477 2936 746 747
478 2937 746 748
479 2164 785 786
480 2167 785 789
481 2182 785 787
482 2183 785 788
483 2157 789 791
484 2162 789 790
485 2176 789 792
486 2169 788 789
487 2170 788 790
488 2161 786 789
489 2165 786 787
490 2166 786 788
491 2174 786 793
492 2175 786 797
493 2022 801 802
494 2350 801 804
495 995 801 805
496 2358 801 803
497 2168 787 789
498 477 787 788
499 2189 787 801
500 2190 787 797
501 1949 800 801
502 2348 800 802
503 2349 800 804
504 2356 800 803
505 2357 800 846
506 2364 800 849
507 2365 800 850
508 2351 802 804
509 2352 802 805
510 2353 802 806
511 1417 802 803
512 2359 803 804
513 490 803 805
514 327 803 806
515 2620 803 846
516 2623 803 807
517 2406 806 808
518 2407 806 809
519 2410 806 807
520 2411 806 810
521 1159 805 806
522 2404 805 808
523 2405 805 809
524 2409 805 807
525 2354 804 805
526 2355 804 806
527 2360 804 808
528 1625 804 807
529 2663 656 657
530 2664 656 660
531 2666 656 748
532 2670 656 658
533 2671 656 659
534 2673 656 750
535 2213 660 661
536 2679 660 662
537 2680 660 664
538 2681 660 838
539 2682 660 663
540 2408 657 806
541 2622 657 803
542 2674 657 660
543 1115 657 658
544 2675 657 659
545 2676 657 661
546 2678 659 660
547 2728 659 661
548 2729 659 662
549 2733 659 663
550 2376 808 809
551 2412 808 811
552 2414 808 812
553 2420 808 810
554 2419 807 808
555 2421 807 809
556 1704 807 811
557 2683 807 810
558 2417 811 812
559 2418 811 813
560 2422 811 815
561 2423 811 814
562 680 810 811
563 2457 810 812
564 1069 810 813
565 197 810 814
566 2684 834 835
567 2689 834 836
568 2692 834 837
569 2693 834 838
570 2694 834 839
571 2739 664 665
572 2740 664 668
573 2741 664 666
574 2742 664 667
575 2789 667 668
576 2792 667 669
577 2941 667 670
578 606 667 671
579 2743 663 664
580 2796 663 665
581 2938 663 666
582 2723 663 667
583 2688 832 834
584 2690 832 835
585 2932 832 836
586 2934 832 833
587 2686 831 834
588 2687 831 835
589 2754 831 833
590 2632 831 832
591 2685 830 834
592 2746 830 831
593 2752 830 833
594 2756 830 832
595 726 833 834
596 2691 833 835
597 2930 833 837
598 2931 833 838
599 2935 833 836
600 2751 829 830
601 2753 829 831
602 2933 829 832
603 2939 829 833
604 2748 828 830
605 2750 828 831
606 2770 828 829
607 763 828 832
608 2798 671 672
609 2942 671 673
610 2747 827 830
611 2749 827 831
612 2762 827 828
613 2769 827 829
614 2755 826 830
615 46 826 827
616 2767 826 828
617 2802 826 829
618 2238 704 707
619 822 704 705
620 2375 704 706
621 2199 703 708
622 2237 703 707
623 2242 703 711
624 2373 703 704
625 2374 703 705
626 1881 703 706
627 2644 634 635
628 2645 634 636
629 2646 634 637
630 172 634 638
631 2907 635 636
632 18 635 637
633 2908 635 638
634 2909 635 639
635 2913 635 746
636 2643 633 634
637 2707 633 635
638 2642 632 634
639 2699 632 633
640 2706 632 635
641 2647 631 634
642 2704 631 632
643 2705 631 633
644 2912 631 635
645 2111 606 608
646 2205 606 607
647 2201 605 606
648 2204 605 607
649 2159 604 791
650 2171 604 789
651 2173 604 790
652 2202 604 605
653 368 604 606
654 2212 604 792
655 2110 603 608
656 2172 603 790
657 1297 603 605
658 2203 603 606
659 1543 603 604
660 2245 603 607
661 2332 647 700
662 2145 647 648
663 2338 647 649
664 2339 647 650
665 2340 647 651
666 2387 647 704
667 2396 651 700
668 2402 651 697
669 2648 651 652
670 2649 651 653
671 2650 651 654
672 2651 651 655
673 2378 700 702
674 2381 700 703
675 2383 700 704
676 2389 700 701
677 2391 697 699
678 2393 697 700
679 2394 697 701
680 2427 697 698
681 2379 701 702
682 2382 701 703
683 2384 701 704
684 2385 701 705
685 2390 696 699
686 2392 696 700
687 2397 696 697
688 2382 696 698
689 539 630 634
690 2701 630 632
691 1866 630 633
692 2720 630 631
693 2725 630 635
694 1168 627 629
695 2711 627 630
696 2714 627 628
697 2718 627 631
698 2659 655 656
699 2662 655 657
700 2668 655 658
701 2669 655 659
702 2703 628 632
703 2716 628 629
704 2717 628 630
705 2775 628 631
706 2213 598 599
707 2214 598 600
708 2105 602 608
709 2106 602 609
710 2206 602 605
711 2207 602 606
712 2210 602 603
713 2211 602 604
714 2244 602 607
715 2246 602 696
716 2209 601 603
717 520 601 602
718 2186 600 788
719 2208 600 603
720 1377 600 601
721 2248 600 602
722 2184 599 787
723 2185 599 788
724 27 599 600
725 2216 599 801
726 2217 599 805
727 2247 599 601
728 2253 693 695
729 2011 693 696
730 2399 693 697
731 2430 693 694
732 2367 654 802
733 2401 654 697
734 1650 654 655
735 2658 654 656
736 2661 654 657
737 2667 654 658
738 2677 658 660
739 841 658 659
740 2726 658 661
741 2727 658 662
742 2732 662 664
743 2735 662 663
744 2736 662 665
745 2738 662 666
746 1417 597 598
747 2215 597 599
748 2218 597 780
749 2413 809 811
750 2415 809 812
751 2416 809 813
752 1721 809 810
753 2449 812 813
754 2450 812 815
755 2451 812 816
756 2455 812 814
757 2730 661 662
758 2731 661 664
759 2734 661 663
760 1866 661 665
761 2737 661 810
762 2452 813 815
763 2453 813 816
764 2454 813 817
765 2456 813 814
766 2492 681 683
767 2493 681 684
768 2494 681 685
769 2509 681 682
770 2272 685 688
771 2442 685 689
772 2445 685 690
773 1163 685 686
774 2491 685 687
775 2501 665 685
776 2504 665 681
777 2777 665 682
778 2780 665 668
779 2781 665 669
780 2786 665 666
781 2787 665 667
782 2788 666 668
783 2791 666 669
784 2940 666 667
785 2892 666 670
786 2495 682 683
787 2496 682 684
788 2497 682 685
789 2498 682 686
790 2458 815 816
791 2459 815 818
792 2460 815 819
793 2464 815 817
794 2461 816 818
795 2462 816 819
796 2465 816 817
797 2466 816 820
798 1543 819 820
799 2471 819 821
800 2472 814 815
801 2473 814 816
802 2474 814 818
803 2516 814 817
804 2744 814 830
805 2745 814 831
806 2463 818 819
807 2468 818 820
808 2469 818 821
809 2475 818 830
810 2476 818 827
811 2467 817 818
812 2470 817 819
813 2510 817 820
814 2511 817 821
815 2512 820 821
816 360 820 822
817 2513 821 822
818 2514 821 823
819 2515 821 826
820 1933 821 827
821 2505 669 681
822 2784 669 672
823 2785 669 678
824 2793 669 670
825 2795 669 671
826 2782 668 669
827 2783 668 672
828 2790 668 670
829 2794 668 671
830 2797 672 674
831 2799 672 673
832 2816 672 678
833 2800 670 672
834 504 670 671
835 2815 673 675
836 2329 673 674
837 2803 675 676
838 2804 675 677
839 2805 675 678
840 2806 675 679
841 2507 678 681
842 2520 678 680
843 2778 678 682
844 2590 678 679
845 2760 825 827
846 2761 825 828
847 1237 825 826
848 2768 825 829
849 2517 822 823
850 2518 822 824
851 2763 823 824
852 2765 823 825
853 2766 823 827
854 2801 823 826
855 2757 824 825
856 2758 824 827
857 2759 824 828
858 2764 824 826
859 2811 674 675
860 2812 674 676
861 2813 674 677
862 2814 674 678
863 2224 738 739
864 2225 738 740
865 2219 739 740
866 2220 739 741
867 1566 707 708
868 2196 707 709
869 2231 707 710
870 2232 707 711
871 2079 710 713
872 2087 710 712
873 1335 710 714
874 2228 710 737
875 2233 710 711
876 2234 710 736
877 2082 709 713
878 1340 709 712
879 2197 709 710
880 2198 709 711
881 2089 708 712
882 1235 708 709
883 2194 708 710
884 2195 708 711
885 2080 711 713
886 2088 711 712
887 2112 711 714
888 2142 711 715
889 2235 711 736
890 2200 706 708
891 2095 706 707
892 2240 706 710
893 2243 706 711
894 2250 706 738
895 2239 705 707
896 2376 705 706
897 2236 702 707
898 2241 702 711
899 1085 702 703
900 2370 702 704
901 2371 702 705
902 2372 702 706
903 999 712 713
904 2083 712 716
905 2084 712 715
906 1371 712 714
907 2107 607 608
908 2108 607 609
909 2109 607 611
910 2149 607 612
911 2377 699 702
912 2380 699 703
913 2145 699 700
914 2388 699 701
915 2386 698 702
916 1803 698 699
917 2395 698 700
918 1821 698 701
919 2266 620 621
920 1974 620 622
921 2267 620 695
922 2268 620 698
923 2269 620 694
924 2700 629 632
925 2702 629 633
926 2712 629 630
927 2719 629 631
928 2403 626 697
929 2426 626 698
930 2708 626 627
931 2709 626 629
932 2710 626 630
933 2713 626 628
934 517 625 626
935 1323 625 627
936 2715 625 629
937 2771 625 628
938 2425 621 698
939 694 621 622
940 2477 621 625
941 2478 621 623
942 2479 621 694
943 2480 621 626
944 2722 624 626
945 2724 624 627
946 2773 624 625
947 2774 624 628
948 2090 608 609
949 2091 608 610
950 2092 608 611
951 2096 608 612
952 2095 610 611
953 2099 610 612
954 2100 610 613
955 2101 610 614
956 2102 611 612
957 2103 611 613
958 2104 611 614
959 2140 611 715
960 2093 609 610
961 2094 609 611
962 2097 609 612
963 2098 609 613
964 2135 612 615
965 2143 612 613
966 2144 612 614
967 2148 612 695
968 2136 613 615
969 2145 613 614
970 2146 613 616
971 2256 695 698
972 2258 695 696
973 2259 695 697
974 2260 695 699
975 2254 694 695
976 2398 694 696
977 2400 694 697
978 2424 694 698
979 2251 692 695
980 1041 692 693
981 2252 692 694
982 2257 692 696
983 937 691 692
984 2049 691 695
985 2428 691 693
986 2429 691 694
987 2436 622 694
988 2481 622 623
989 2482 622 624
990 2483 622 625
991 2484 622 626
992 2439 623 694
993 2502 623 686
994 2721 623 626
995 2723 623 627
996 2772 623 625
997 2776 623 624
998 2255 690 692
999 2432 690 691
1000 2434 690 693
1001 2435 690 694
1002 2273 686 688
1003 2437 686 691
1004 2443 686 689
1005 2446 686 690
1006 1702 686 687
1007 200 689 692
1008 2431 689 691
1009 2433 689 693
1010 2440 689 690
1011 2448 689 809
1012 2275 688 689
1013 1340 688 690
1014 1603 688 691
1015 2274 687 688
1016 2438 687 691
1017 2444 687 689
1018 2447 687 690
1019 2271 684 688
1020 2441 684 689
1021 2489 684 685
1022 960 684 686
1023 2490 684 687
1024 2485 683 684
1025 2486 683 685
1026 2487 683 686
1027 2488 683 687
1028 2503 679 683
1029 2508 679 681
1030 2521 679 680
1031 2779 679 682
1032 2499 680 683
1033 2500 680 684
1034 310 680 681
1035 2522 680 682
1036 2506 677 681
1037 82 677 680
1038 3 677 678
1039 2810 677 679
1040 2519 676 680
1041 2807 676 677
1042 2808 676 678
1043 2809 676 679
1044 2330 744 745
1045 2329 743 744
1046 2369 743 745
1047 2223 741 743
1048 2227 741 742
1049 2221 740 741
1050 2226 740 742
1051 2327 742 744
1052 2328 742 743
1053 2077 713 716
1054 718 713 714
1055 2078 713 717
1056 2081 713 715
1057 2112 714 717
1058 2113 714 718
1059 2114 714 734
1060 2118 714 715
1061 2124 714 735
1062 2125 714 736
1063 2130 714 716
1064 2127 734 735
1065 2128 734 736
1066 2229 735 737
1067 217 735 736
1068 2222 737 739
1069 834 737 738
1070 2230 736 737
1071 2249 736 738
1072 2044 716 720
1073 2086 716 719
1074 394 716 717
1075 2131 716 718
1076 2085 715 716
1077 2119 715 717
1078 2121 715 718
1079 2134 715 719
1080 2043 717 720
1081 2062 717 721
1082 2115 717 718
1083 2116 717 734
1084 2120 717 719
1085 639 718 720
1086 2063 718 721
1087 2117 718 734
1088 1688 718 719
1089 2122 718 733
1090 2126 718 735
1091 2129 718 722
1092 2041 719 720
1093 2065 719 721
1094 2074 719 723
1095 2139 719 722
1096 1634 619 620
1097 2265 619 621
1098 2137 614 615
1099 2138 614 719
1100 2147 614 616
1101 2132 615 715
1102 2133 615 719
1103 935 615 616
1104 2141 615 617
1105 1134 616 617
1106 2153 616 618
1107 2154 616 619
1108 2262 618 619
1109 2264 618 620
1110 2261 617 619
1111 2263 617 620
1112 2270 617 618
1113 2123 733 734
1114 2152 733 735
1115 1159 732 733
1116 2151 732 734
1117 1526 731 732
1118 2150 731 733
1119 2049 721 729
1120 2050 721 723
1121 2051 721 724
1122 2058 721 733
1123 1993 721 722
1124 2064 721 734
1125 1475 720 723
1126 2040 720 724
1127 2042 720 722
1128 807 720 721
1129 2052 724 728
1130 2054 724 729
1131 2068 724 725
1132 2069 724 726
1133 2071 722 723
1134 2072 722 724
1135 2073 722 725
1136 2066 723 724
1137 2067 723 725
1138 2047 730 731
1139 852 730 732
1140 2048 730 733
1141 2046 729 730
1142 2061 729 731
1143 2045 728 730
1144 2041 728 729
1145 2056 727 728
1146 2057 727 729
1147 2059 726 728
1148 2060 726 729
1149 2075 726 727
1150 2053 725 728
1151 2055 725 729
1152 2070 725 726
1153 2076 725 727
1154 133 295 298
1155 279 295 296
1156 280 295 297
1157 135 297 298
1158 134 296 298
1159 281 296 297
1160 1034 283 285
1161 1073 283 284
1162 1083 280 281
1163 1084 280 282
1164 283 294 295
1165 285 294 296
1166 562 290 292
1167 872 290 291
1168 563 291 292
1169 564 291 293
1170 873 289 290
1171 874 289 291
1172 1032 270 271
1173 1061 270 273
1174 1062 270 274
1175 1063 270 272
1176 897 267 289
1177 1011 267 268
1178 717 267 269
1179 1013 267 271
1180 1017 267 270
1181 201 273 274
1182 1065 273 275
1183 1066 273 276
1184 1071 273 277
1185 282 293 295
1186 284 293 296
1187 558 293 294
1188 559 258 292
1189 574 258 259
1190 593 258 260
1191 54 292 293
1192 557 292 294
1193 560 259 292
1194 561 259 293
1195 584 259 263
1196 585 259 264
1197 594 259 260
1198 595 259 261
1199 875 288 290
1200 896 288 289
1201 895 287 289
1202 1023 287 288
1203 1026 286 287
1204 1027 286 288
1205 606 271 287
1206 1024 271 286
1207 1028 271 273
1208 1029 271 274
1209 1030 271 272
1210 1031 271 275
1211 1035 284 285
1212 1036 284 286
1213 1075 282 283
1214 1076 282 284
1215 1025 285 287
1216 1033 285 286
1217 1068 274 275
1218 1069 274 276
1219 1070 274 282
1220 1072 274 277
1221 1079 275 276
1222 490 275 277
1223 1081 275 278
1224 1074 281 283
1225 1085 281 282
1226 1092 277 278
1227 1093 277 279
1228 1094 277 281
1229 1095 277 282
1230 1086 278 280
1231 1088 278 281
1232 1090 278 282
1233 1096 278 279
1234 1087 279 280
1235 1089 279 281
1236 1091 279 282
1237 176 185 188
1238 287 185 186
1239 288 185 187
1240 172 186 188
1241 286 186 187
1242 289 182 186
1243 295 182 185
1244 322 182 183
1245 323 182 184
1246 294 181 185
1247 319 181 182
1248 320 181 183
1249 321 181 184
1250 329 178 180
1251 330 178 181
1252 331 178 182
1253 611 178 179
1254 616 174 179
1255 622 174 178
1256 673 174 176
1257 676 174 175
1258 964 174 247
1259 907 172 173
1260 914 172 174
1261 329 171 173
1262 912 171 172
1263 913 171 174
1264 2012 422 424
1265 1041 422 423
1266 2016 422 425
1267 2 422 426
1268 2021 425 427
1269 2022 425 426
1270 2019 423 424
1271 2023 423 425
1272 2029 423 431
1273 2030 423 426
1274 2031 426 431
1275 3 426 427
1276 2035 426 428
1277 2036 426 430
1278 22 429 431
1279 2039 429 430
1280 2032 427 431
1281 1900 427 428
1282 2037 427 429
1283 2038 427 430
1284 873 430 431
1285 8 430 432
1286 2033 431 432
1287 2034 431 433
1288 25 428 431
1289 42 428 429
1290 24 428 430
1291 887 263 264
1292 888 263 265
1293 889 263 266
1294 890 263 267
1295 876 260 261
1296 877 260 262
1297 878 260 263
1298 879 260 264
1299 491 261 262
1300 880 261 263
1301 881 261 264
1302 884 261 265
1303 882 262 263
1304 883 262 264
1305 885 262 265
1306 886 262 266
1307 891 264 265
1308 892 264 266
1309 893 264 267
1310 894 264 268
1311 497 266 267
1312 1009 266 268
1313 1010 266 269
1314 1016 266 270
1315 1005 265 266
1316 1006 265 267
1317 1007 265 268
1318 1008 265 269
1319 1015 269 271
1320 1019 269 270
1321 1020 269 273
1322 1022 269 272
1323 141 190 193
1324 145 190 191
1325 146 190 192
1326 154 190 197
1327 155 190 201
1328 144 189 190
1329 147 189 193
1330 162 189 191
1331 163 189 192
1332 136 193 195
1333 142 193 194
1334 156 193 196
1335 572 257 258
1336 573 257 259
1337 592 257 260
1338 158 187 190
1339 173 187 188
1340 174 187 189
1341 175 187 191
1342 569 256 257
1343 570 256 258
1344 571 256 259
1345 583 256 264
1346 590 256 260
1347 591 256 261
1348 565 255 256
1349 566 255 257
1350 567 255 258
1351 568 255 259
1352 582 255 264
1353 589 255 260
1354 576 254 255
1355 578 254 256
1356 580 254 257
1357 581 254 258
1358 587 252 255
1359 588 252 256
1360 607 252 253
1361 608 252 254
1362 575 253 255
1363 577 253 256
1364 579 253 257
1365 601 253 254
1366 1012 268 269
1367 1014 268 271
1368 1018 268 270
1369 1021 268 272
1370 919 168 172
1371 92 168 170
1372 1040 168 169
1373 1064 272 273
1374 1067 272 274
1375 1077 272 275
1376 1078 272 276
1377 1039 167 168
1378 1060 167 169
1379 1080 276 277
1380 1082 276 278
1381 143 188 190
1382 159 188 189
1383 160 188 191
1384 161 188 192
1385 201 2 3
1386 202 2 4
1387 204 1 2
1388 205 1 3
1389 208 1 184
1390 148 191 193
1391 164 191 192
1392 170 191 205
1393 171 191 201
1394 149 192 193
1395 150 192 194
1396 168 183 188
1397 290 183 186
1398 292 183 187
1399 296 183 185
1400 324 183 184
1401 169 184 188
1402 291 184 186
1403 293 184 187
1404 297 184 185
1405 315 180 181
1406 316 180 182
1407 317 180 183
1408 318 180 184
1409 586 251 255
1410 602 251 253
1411 604 251 254
1412 618 251 252
1413 325 179 180
1414 326 179 181
1415 327 179 182
1416 328 179 183
1417 603 179 254
1418 610 179 251
1419 658 179 250
1420 617 247 251
1421 656 247 250
1422 948 247 249
1423 955 247 248
1424 605 250 253
1425 606 250 254
1426 659 250 251
1427 660 250 252
1428 332 176 180
1429 612 176 179
1430 661 176 246
1431 663 176 177
1432 664 176 247
1433 671 176 178
1434 613 173 251
1435 677 173 175
1436 908 173 174
1437 909 173 247
1438 910 173 248
1439 911 170 173
1440 915 170 171
1441 916 170 172
1442 956 170 244
1443 255 248 251
1444 657 248 250
1445 906 248 252
1446 949 248 249
1447 917 169 171
1448 918 169 172
1449 966 169 170
1450 333 177 180
1451 334 177 181
1452 615 177 179
1453 621 177 178
1454 614 175 179
1455 620 175 178
1456 662 175 176
1457 674 175 177
1458 675 175 247
1459 1945 415 416
1460 1948 415 417
1461 1953 415 418
1462 1954 415 419
1463 1997 419 436
1464 2006 419 420
1465 2007 419 421
1466 2008 419 422
1467 2013 419 423
1468 1994 437 438
1469 1995 437 439
1470 1998 420 436
1471 2009 420 421
1472 339 420 422
1473 99 420 424
1474 2014 420 423
1475 2017 420 435
1476 2002 418 419
1477 2003 418 420
1478 2004 418 421
1479 2005 418 422
1480 1961 417 418
1481 632 417 419
1482 1962 417 420
1483 1963 417 421
1484 2010 421 422
1485 2011 421 424
1486 2015 421 423
1487 528 421 425
1488 1964 317 321
1489 1966 317 318
1490 1967 317 319
1491 1968 317 421
1492 1972 316 318
1493 1973 316 317
1494 1974 316 421
1495 1965 315 317
1496 33 315 316
1497 121 315 318
1498 1975 315 319
1499 1996 436 437
1500 2001 436 438
1501 2025 433 434
1502 2026 433 435
1503 2000 435 436
1504 129 435 437
1505 1999 434 436
1506 2027 434 435
1507 2018 424 425
1508 2020 424 426
1509 219 432 433
1510 2028 432 434
1511 1976 318 319
1512 1977 318 320
1513 1978 318 321
1514 904 159 160
1515 898 158 159
1516 903 158 160
1517 933 157 158
1518 934 157 159
1519 838 160 161
1520 1037 160 162
1521 298 196 197
1522 299 196 198
1523 137 194 195
1524 157 194 196
1525 138 195 196
1526 140 195 197
1527 139 8 195
1528 151 8 193
1529 153 8 194
1530 188 8 9
1531 190 8 10
1532 200 8 196
1533 301 197 198
1534 302 197 201
1535 306 197 199
1536 303 198 201
1537 304 198 202
1538 307 198 199
1539 308 198 200
1540 305 201 202
1541 311 201 204
1542 312 201 205
1543 313 201 253
1544 314 201 203
1545 351 202 204
1546 352 202 205
1547 353 202 206
1548 355 202 203
1549 309 199 201
1550 356 199 202
1551 372 199 200
1552 597 199 203
1553 310 200 201
1554 357 200 202
1555 383 200 204
1556 596 200 253
1557 598 200 203
1558 599 200 256
1559 600 200 257
1560 374 203 204
1561 375 203 205
1562 377 203 206
1563 645 203 207
1564 650 203 253
1565 899 155 158
1566 901 155 159
1567 927 155 157
1568 937 155 156
1569 942 155 161
1570 944 155 162
1571 945 155 160
1572 965 165 248
1573 1055 165 166
1574 1056 165 167
1575 1058 165 168
1576 1041 161 162
1577 481 161 163
1578 1042 161 164
1579 1043 161 165
1580 1044 162 163
1581 1045 162 164
1582 1046 162 165
1583 1050 162 166
1584 1049 164 165
1585 1053 164 166
1586 1054 164 167
1587 1057 164 168
1588 1047 163 164
1589 1048 163 165
1590 1051 163 166
1591 1052 163 167
1592 167 4 192
1593 196 4 7
1594 241 4 5
1595 242 4 6
1596 79 7 12
1597 152 7 194
1598 187 7 9
1599 189 7 10
1600 195 7 8
1601 237 7 11
1602 165 3 191
1603 166 3 192
1604 203 3 4
1605 206 3 205
1606 207 3 209
1607 240 3 5
1608 197 5 7
1609 238 5 6
1610 358 204 205
1611 359 204 206
1612 360 204 208
1613 368 204 207
1614 369 204 250
1615 378 204 253
1616 379 204 254
1617 27 205 206
1618 361 205 208
1619 363 205 209
1620 370 205 207
1621 177 209 210
1622 425 209 212
1623 426 209 213
1624 430 209 211
1625 362 206 208
1626 364 206 209
1627 365 206 210
1628 371 206 207
1629 366 208 209
1630 367 208 210
1631 373 208 212
1632 380 208 211
1633 372 207 208
1634 433 207 209
1635 434 207 210
1636 651 207 250
1637 655 207 211
1638 427 210 212
1639 428 210 213
1640 431 210 211
1641 432 210 214
1642 609 249 253
1643 619 249 251
1644 654 249 250
1645 905 249 252
1646 652 246 250
1647 667 246 247
1648 668 246 248
1649 672 246 249
1650 666 245 246
1651 947 245 249
1652 953 245 247
1653 954 245 248
1654 665 244 246
1655 950 244 245
1656 951 244 247
1657 952 244 248
1658 1038 166 168
1659 1059 166 167
1660 435 212 213
1661 436 212 215
1662 438 212 216
1663 444 212 214
1664 437 213 215
1665 439 213 216
1666 440 213 217
1667 446 213 214
1668 443 211 212
1669 445 211 213
1670 447 211 215
1671 724 211 214
1672 441 215 216
1673 442 215 217
1674 449 215 219
1675 450 215 218
1676 448 214 215
1677 485 214 216
1678 486 214 217
1679 725 214 218
1680 670 243 246
1681 959 243 244
1682 961 243 245
1683 962 243 247
1684 726 238 239
1685 731 238 240
1686 736 238 241
1687 737 238 242
1688 738 238 243
1689 733 239 240
1690 739 239 241
1691 740 239 242
1692 741 239 243
1693 742 239 244
1694 963 240 244
1695 986 240 241
1696 987 240 242
1697 988 240 243
1698 734 237 238
1699 735 237 239
1700 989 237 241
1701 990 237 242
1702 994 237 240
1703 957 241 244
1704 983 241 242
1705 984 241 243
1706 669 242 246
1707 958 242 244
1708 960 242 245
1709 985 242 243
1710 477 216 217
1711 478 216 219
1712 479 216 220
1713 483 216 218
1714 97 219 220
1715 487 219 222
1716 488 219 223
1717 490 219 221
1718 345 222 223
1719 494 222 224
1720 495 222 225
1721 502 222 234
1722 503 222 231
1723 499 218 219
1724 500 218 220
1725 501 218 222
1726 548 218 221
1727 794 218 234
1728 795 218 235
1729 730 236 238
1730 732 236 239
1731 991 236 240
1732 993 236 237
1733 728 235 238
1734 729 235 239
1735 804 235 237
1736 807 235 236
1737 797 231 234
1738 799 231 235
1739 813 231 232
1740 821 231 233
1741 798 232 234
1742 800 232 235
1743 822 232 233
1744 823 232 236
1745 801 233 234
1746 803 233 235
1747 992 233 236
1748 998 233 237
1749 727 234 238
1750 796 234 235
1751 802 234 237
1752 806 234 236
1753 805 230 234
1754 819 230 231
1755 820 230 232
1756 854 230 233
1757 497 223 224
1758 498 223 225
1759 550 226 227
1760 551 226 228
1761 811 229 231
1762 812 229 232
1763 817 229 230
1764 405 229 233
1765 808 228 229
1766 809 228 231
1767 810 228 232
1768 815 228 230
1769 814 227 228
1770 816 227 229
1771 818 227 231
1772 853 227 230
1773 1935 411 412
1774 183 411 413
1775 1748 411 414
1776 1936 411 415
1777 1837 410 412
1778 1838 410 413
1779 1839 410 414
1780 1842 410 411
1781 1892 313 314
1782 1959 313 417
1783 73 313 316
1784 1960 313 418
1785 72 313 315
1786 1830 308 309
1787 1831 308 310
1788 1883 309 310
1789 1886 309 311
1790 1890 309 313
1791 1884 310 314
1792 749 310 311
1793 1887 310 312
1794 1891 310 313
1795 1889 312 314
1796 1741 312 316
1797 1922 312 315
1798 65 312 313
1799 1888 311 314
1800 1159 311 312
1801 1921 311 315
1802 1923 311 313
1803 1931 439 440
1804 1991 439 442
1805 1992 439 441
1806 1927 440 442
1807 1928 440 443
1808 1929 440 444
1809 1930 440 441
1810 1949 416 417
1811 1950 416 436
1812 1951 416 437
1813 1955 416 418
1814 1956 416 419
1815 1957 416 420
1816 44 414 415
1817 1944 414 416
1818 1947 414 417
1819 1952 414 418
1820 1937 412 413
1821 1938 412 414
1822 1939 412 415
1823 1940 412 416
1824 1941 413 414
1825 1942 413 415
1826 1943 413 416
1827 1946 413 417
1828 1993 438 439
1829 1885 314 397
1830 1893 314 417
1831 1894 314 317
1832 1895 314 316
1833 1845 314 315
1834 1855 397 399
1835 1857 397 400
1836 1859 397 401
1837 1898 397 398
1838 1958 321 323
1839 1456 321 322
1840 1865 322 400
1841 1904 322 397
1842 1912 322 324
1843 1913 322 396
1844 1517 322 323
1845 1880 323 325
1846 1881 323 327
1847 1882 323 328
1848 1918 323 324
1849 1919 323 396
1850 1916 319 393
1851 271 319 320
1852 1971 319 321
1853 1969 320 321
1854 1970 320 322
1855 1755 393 395
1856 1900 393 394
1857 1902 393 397
1858 1908 393 396
1859 454 389 391
1860 1914 389 392
1861 1915 389 393
1862 1924 389 390
1863 1765 390 391
1864 1910 390 392
1865 1911 390 393
1866 623 47 48
1867 624 47 49
1868 625 47 52
1869 626 47 53
1870 636 47 157
1871 642 47 199
1872 340 48 50
1873 627 48 49
1874 628 48 52
1875 341 49 50
1876 344 49 51
1877 139 49 52
1878 629 49 53
1879 635 46 47
1880 637 46 48
1881 924 46 157
1882 634 45 47
1883 922 45 46
1884 923 45 157
1885 926 45 156
1886 932 45 158
1887 156 45 159
1888 633 44 47
1889 663 44 45
1890 920 44 46
1891 921 44 157
1892 925 44 156
1893 203 43 44
1894 931 43 45
1895 977 43 152
1896 979 43 150
1897 900 156 158
1898 902 156 159
1899 928 156 157
1900 943 156 161
1901 946 156 160
1902 80 10 12
1903 192 10 11
1904 186 9 10
1905 191 9 11
1906 58 112 116
1907 177 112 113
1908 179 112 114
1909 180 112 115
1910 300 50 196
1911 338 50 51
1912 342 50 52
1913 343 50 53
1914 347 50 54
1915 350 50 199
1916 9 53 54
1917 632 53 55
1918 639 53 56
1919 640 53 57
1920 643 53 199
1921 354 54 202
1922 376 54 206
1923 644 54 203
1924 646 54 56
1925 647 54 57
1926 648 54 58
1927 173 54 55
1928 339 51 104
1929 345 51 52
1930 346 51 53
1931 348 51 54
1932 349 51 55
1933 405 51 108
1934 601 52 53
1935 630 52 54
1936 631 52 55
1937 638 52 56
1938 416 55 104
1939 423 55 101
1940 686 55 56
1941 687 55 57
1942 688 55 58
1943 689 55 59
1944 396 104 106
1945 399 104 107
1946 401 104 108
1947 408 104 105
1948 690 56 57
1949 691 56 58
1950 692 56 59
1951 693 56 60
1952 704 56 152
1953 938 152 154
1954 980 152 153
1955 935 154 155
1956 936 154 156
1957 381 57 206
1958 649 57 203
1959 694 57 58
1960 695 57 59
1961 696 57 60
1962 699 57 61
1963 939 153 154
1964 940 153 155
1965 941 153 156
1966 71 15 16
1967 72 15 17
1968 73 15 18
1969 115 15 119
1970 60 12 13
1971 61 12 14
1972 62 12 15
1973 66 12 16
1974 76 11 12
1975 77 11 13
1976 78 11 15
1977 124 11 16
1978 74 6 12
1979 75 6 13
1980 193 6 9
1981 194 6 10
1982 198 6 7
1983 199 6 8
1984 236 6 11
1985 239 6 100
1986 63 13 14
1987 64 13 15
1988 67 13 16
1989 68 13 17
1990 109 16 19
1991 118 16 17
1992 119 16 18
1993 123 16 99
1994 395 100 103
1995 410 100 104
1996 417 100 101
1997 454 100 102
1998 251 97 99
1999 418 97 100
2000 420 97 101
2001 458 97 98
2002 382 58 206
2003 422 58 101
2004 283 58 59
2005 697 58 60
2006 700 58 61
2007 706 58 62
2008 429 61 210
2009 653 61 207
2010 713 61 64
2011 714 61 62
2012 715 61 63
2013 716 61 65
2014 702 60 61
2015 703 60 64
2016 705 60 152
2017 709 60 62
2018 710 60 63
2019 712 60 154
2020 718 63 64
2021 777 63 65
2022 778 63 66
2023 782 63 67
2024 717 62 64
2025 774 62 63
2026 775 62 65
2027 776 62 66
2028 698 59 60
2029 701 59 61
2030 707 59 62
2031 708 59 63
2032 719 64 65
2033 720 64 66
2034 721 64 68
2035 722 64 242
2036 723 64 67
2037 65 14 15
2038 49 14 16
2039 69 14 17
2040 70 14 18
2041 110 17 19
2042 120 17 18
2043 121 17 20
2044 253 93 96
2045 459 93 95
2046 461 93 97
2047 468 93 94
2048 476 93 213
2049 246 96 99
2050 248 96 97
2051 249 96 98
2052 256 96 100
2053 276 92 93
2054 277 92 94
2055 278 92 95
2056 779 65 66
2057 780 65 68
2058 783 65 67
2059 785 65 69
2060 787 65 214
2061 531 69 89
2062 535 69 85
2063 829 69 86
2064 832 69 72
2065 833 69 73
2066 838 69 70
2067 839 69 71
2068 781 66 68
2069 784 66 67
2070 786 66 69
2071 788 66 70
2072 789 68 69
2073 790 68 72
2074 791 68 70
2075 792 68 71
2076 841 71 72
2077 844 71 73
2078 1001 71 74
2079 1002 71 75
2080 793 67 68
2081 848 67 69
2082 996 67 70
2083 997 67 71
2084 480 217 219
2085 481 217 220
2086 482 217 221
2087 484 217 218
2088 489 220 222
2089 311 220 223
2090 491 220 221
2091 492 220 224
2092 493 221 222
2093 496 221 223
2094 541 221 224
2095 542 221 225
2096 850 75 76
2097 1004 75 77
2098 834 72 73
2099 835 72 76
2100 842 72 74
2101 846 72 75
2102 849 76 78
2103 851 76 77
2104 870 76 82
2105 543 224 225
2106 544 224 226
2107 545 225 226
2108 546 225 227
2109 547 225 230
2110 549 225 231
2111 1519 493 494
2112 140 493 495
2113 1521 492 494
2114 1559 492 493
2115 1553 491 493
2116 1558 491 492
2117 1547 487 488
2118 1548 487 489
2119 147 487 491
2120 1549 487 493
2121 1555 487 490
2122 1417 486 487
2123 1418 486 488
2124 1419 486 489
2125 1420 486 490
2126 3025 486 610
2127 3025 486 608
2128 1458 490 491
2129 1620 490 492
2130 1552 489 491
2131 1554 489 503
2132 195 489 490
2133 1615 299 490
2134 1616 299 300
2135 1618 299 301
2136 187 305 307
2137 1736 305 306
2138 1737 305 492
2139 1748 305 309
2140 1749 305 310
2141 1752 305 308
2142 1725 307 309
2143 1726 307 308
2144 1522 306 495
2145 1734 306 492
2146 1739 306 307
2147 1740 306 308
2148 1724 304 307
2149 1735 304 306
2150 871 304 305
2151 1746 304 309
2152 1747 304 310
2153 1750 304 311
2154 1751 304 308
2155 1566 303 304
2156 1741 303 305
2157 1743 302 303
2158 1744 302 304
2159 1745 302 305
2160 1762 302 310
2161 1562 301 489
2162 1563 301 491
2163 1619 301 490
2164 1738 301 492
2165 1742 301 303
2166 1761 301 302
2167 1560 300 489
2168 1561 300 491
2169 1617 300 490
2170 1621 300 301
2171 1622 300 302
2172 2024 446 447
2173 694 444 445
2174 1983 441 442
2175 1984 441 443
2176 1985 441 444
2177 1986 441 445
2178 1981 443 444
2179 1982 443 445
2180 1979 442 443
2181 216 442 444
2182 1980 442 445
2183 1987 442 446
2184 1988 442 447
2185 448 409 410
2186 1810 409 412
2187 1811 409 413
2188 1812 409 411
2189 1806 408 409
2190 1844 408 410
2191 1926 408 440
2192 232 408 412
2193 1932 408 413
2194 1933 408 438
2195 1934 408 439
2196 1803 405 406
2197 1804 405 409
2198 1832 405 410
2199 1836 405 413
2200 1841 405 407
2201 1843 405 408
2202 229 406 409
2203 1801 406 407
2204 1805 406 408
2205 1802 407 409
2206 1820 407 408
2207 1808 404 406
2208 1809 404 409
2209 1819 404 407
2210 1835 404 405
2211 1864 404 413
2212 1866 404 408
2213 1817 401 403
2214 1833 401 405
2215 1850 401 402
2216 1851 401 404
2217 1807 402 406
2218 1720 402 403
2219 1834 402 405
2220 1852 402 404
2221 1815 399 403
2222 1845 399 400
2223 1846 399 401
2224 1847 399 402
2225 380 403 406
2226 1813 403 407
2227 1818 403 404
2228 1840 403 405
2229 1757 394 395
2230 1896 394 397
2231 1897 394 398
2232 1901 394 396
2233 1576 507 508
2234 1577 507 509
2235 1580 507 510
2236 1581 507 511
2237 1856 398 399
2238 1858 398 400
2239 1860 398 401
2240 1861 398 402
2241 1756 395 396
2242 251 395 397
2243 1758 395 398
2244 1760 395 399
2245 1623 510 511
2246 1624 510 512
2247 1625 510 513
2248 1626 510 514
2249 1627 511 512
2250 1628 511 513
2251 1629 511 514
2252 1630 511 515
2253 1637 515 516
2254 811 515 517
2255 1256 515 518
2256 482 515 519
2257 1124 514 515
2258 1636 514 516
2259 1639 514 517
2260 1640 514 518
2261 1436 513 533
2262 1634 513 514
2263 442 513 515
2264 1635 513 516
2265 1638 513 517
2266 1439 517 533
2267 912 517 518
2268 1661 517 521
2269 853 517 519
2270 1663 517 520
2271 1437 516 533
2272 1448 516 532
2273 1641 516 517
2274 1642 516 518
2275 1643 516 519
2276 1644 516 520
2277 1662 518 521
2278 1664 518 519
2279 489 518 520
2280 1665 518 522
2281 1816 400 403
2282 1688 400 401
2283 1848 400 402
2284 1849 400 404
2285 760 328 330
2286 1827 328 331
2287 1828 328 332
2288 1853 328 399
2289 1854 328 400
2290 1872 328 329
2291 1719 331 333
2292 1799 331 335
2293 1170 331 332
2294 1823 331 334
2295 1722 329 333
2296 491 329 330
2297 756 329 331
2298 1829 329 332
2299 1875 324 325
2300 1878 324 327
2301 1879 324 328
2302 1905 324 396
2303 1917 324 326
2304 1754 392 395
2305 1899 392 394
2306 1906 392 393
2307 1907 392 396
2308 1862 396 399
2309 1863 396 400
2310 1903 396 397
2311 419 396 398
2312 1759 325 395
2313 1867 325 327
2314 1868 325 328
2315 1869 325 329
2316 828 325 326
2317 1876 325 392
2318 1877 325 396
2319 1763 386 391
2320 1778 386 387
2321 1653 386 389
2322 598 386 390
2323 1789 386 388
2324 1768 388 391
2325 1909 388 392
2326 1920 388 389
2327 1925 388 390
2328 1753 391 395
2329 1766 391 392
2330 1767 391 393
2331 398 391 394
2332 1764 387 391
2333 1786 387 389
2334 1787 387 390
2335 1790 387 388
2336 1791 387 392
2337 1769 383 384
2338 1770 383 385
2339 1771 383 386
2340 1772 383 387
2341 1446 519 532
2342 1666 519 521
2343 1669 519 520
2344 1670 519 522
2345 1671 519 523
2346 1440 520 533
2347 1447 520 532
2348 503 520 529
2349 1461 520 530
2350 1667 520 521
2351 1672 520 522
2352 1673 520 523
2353 1668 521 522
2354 498 521 523
2355 1674 522 523
2356 1675 522 524
2357 1467 524 526
2358 1011 524 525
2359 1466 523 526
2360 1676 523 524
2361 1677 523 525
2362 1465 525 526
2363 1468 525 527
2364 1825 327 330
2365 1826 327 331
2366 1870 327 328
2367 1871 327 329
2368 1718 330 333
2369 908 330 331
2370 1821 330 332
2371 1822 330 334
2372 826 326 330
2373 135 326 327
2374 1873 326 328
2375 1874 326 329
2376 1776 385 386
2377 1777 385 387
2378 1785 385 389
2379 1788 385 388
2380 985 382 383
2381 1781 382 384
2382 1783 382 385
2383 1784 382 386
2384 1779 381 383
2385 1780 381 384
2386 1782 381 385
2387 1794 381 382
2388 1773 384 385
2389 1774 384 386
2390 1775 384 387
2391 41 384 388
2392 860 378 380
2393 1798 378 379
2394 1795 379 380
2395 1796 379 381
2396 1797 379 382
2397 1792 380 381
2398 1793 380 382
2399 1464 376 526
2400 1680 376 377
2401 1684 376 525
2402 1687 376 378
2403 1682 375 376
2404 1683 375 377
2405 1685 377 525
2406 1686 377 379
2407 1688 377 378
2408 1689 377 380
2409 214 142 143
2410 215 142 144
2411 209 143 144
2412 210 143 145
2413 971 40 41
2414 781 40 42
2415 972 40 43
2416 974 40 44
2417 641 41 52
2418 929 41 44
2419 975 41 42
2420 976 41 43
2421 51 113 117
2422 59 113 116
2423 182 113 114
2424 183 113 115
2425 44 116 117
2426 52 116 120
2427 53 116 119
2428 100 116 118
2429 45 117 120
2430 46 117 118
2431 47 117 121
2432 50 117 119
2433 48 114 117
2434 56 114 116
2435 104 114 118
2436 218 114 141
2437 224 114 115
2438 225 114 140
2439 81 118 121
2440 82 118 122
2441 83 118 138
2442 87 118 119
2443 94 118 139
2444 95 118 140
2445 101 118 120
2446 49 115 117
2447 57 115 116
2448 105 115 118
2449 117 115 119
2450 226 115 140
2451 178 111 112
2452 181 111 113
2453 222 111 114
2454 223 111 115
2455 185 110 112
2456 231 110 111
2457 232 110 114
2458 235 110 115
2459 244 110 142
2460 3024 110 422
2461 230 109 111
2462 394 109 110
2463 3024 109 418
2464 184 107 112
2465 228 107 111
2466 234 107 115
2467 389 107 108
2468 390 107 109
2469 391 107 110
2470 227 106 111
2471 233 106 115
2472 385 106 107
2473 386 106 108
2474 387 106 109
2475 388 106 110
2476 229 108 111
2477 392 108 109
2478 393 108 110
2479 397 105 106
2480 400 105 107
2481 402 105 108
2482 403 105 109
2483 682 34 38
2484 745 34 36
2485 747 34 37
2486 768 34 35
2487 773 34 39
2488 680 38 39
2489 681 38 40
2490 683 38 41
2491 684 38 42
2492 967 39 40
2493 968 39 41
2494 969 39 42
2495 970 39 43
2496 424 39 150
2497 3024 39 312
2498 981 151 152
2499 982 151 153
2500 711 42 56
2501 930 42 44
2502 455 42 43
2503 206 42 152
2504 978 42 150
2505 685 35 38
2506 749 35 36
2507 750 35 37
2508 973 35 39
2509 545 150 151
2510 995 150 152
2511 1 124 127
2512 2 124 128
2513 4 124 126
2514 27 124 125
2515 7 120 124
2516 55 120 123
2517 102 120 121
2518 103 120 122
2519 54 119 120
2520 88 119 121
2521 90 119 122
2522 108 119 123
2523 3 123 124
2524 32 123 125
2525 41 123 127
2526 113 123 126
2527 5 121 124
2528 29 121 125
2529 84 121 122
2530 85 121 138
2531 89 121 123
2532 395 103 106
2533 398 103 107
2534 406 103 104
2535 407 103 105
2536 266 24 25
2537 267 24 26
2538 268 24 99
2539 269 24 102
2540 270 24 98
2541 255 99 102
2542 257 99 100
2543 258 99 101
2544 259 99 103
2545 404 102 106
2546 413 102 103
2547 414 102 104
2548 415 102 105
2549 409 101 103
2550 411 101 104
2551 412 101 105
2552 455 101 102
2553 252 98 99
2554 419 98 100
2555 421 98 101
2556 451 98 102
2557 424 30 101
2558 453 30 102
2559 753 30 31
2560 754 30 33
2561 755 30 34
2562 760 30 32
2563 467 27 98
2564 532 27 90
2565 769 27 30
2566 771 27 31
2567 825 27 29
2568 828 27 28
2569 756 31 33
2570 757 31 34
2571 762 31 32
2572 766 31 35
2573 106 19 119
2574 107 19 123
2575 114 19 20
2576 116 19 21
2577 111 18 19
2578 112 18 123
2579 122 18 20
2580 261 21 23
2581 263 21 24
2582 271 21 22
2583 130 20 21
2584 131 20 22
2585 132 20 23
2586 3024 20 430
2587 247 95 96
2588 250 95 99
2589 456 95 97
2590 457 95 98
2591 254 94 96
2592 460 94 95
2593 462 94 97
2594 463 94 98
2595 275 91 92
2596 466 91 95
2597 472 91 93
2598 475 91 94
2599 274 90 92
2600 465 90 95
2601 471 90 93
2602 474 90 94
2603 60 90 91
2604 273 89 92
2605 470 89 93
2606 473 89 94
2607 520 89 90
2608 521 89 91
2609 525 86 87
2610 526 86 88
2611 527 86 89
2612 528 86 90
2613 840 70 72
2614 843 70 73
2615 999 70 71
2616 1000 70 74
2617 272 88 92
2618 469 88 93
2619 517 88 89
2620 518 88 90
2621 519 88 91
2622 513 87 88
2623 514 87 89
2624 515 87 90
2625 516 87 91
2626 529 84 87
2627 530 84 88
2628 534 84 85
2629 556 84 86
2630 522 85 87
2631 523 85 88
2632 524 85 89
2633 540 85 86
2634 533 83 87
2635 539 83 85
2636 555 83 84
2637 831 83 86
2638 537 81 85
2639 553 81 84
2640 862 81 82
2641 863 81 83
2642 538 82 85
2643 554 82 84
2644 830 82 86
2645 864 82 83
2646 552 80 84
2647 859 80 81
2648 860 80 82
2649 861 80 83
2650 852 74 76
2651 1003 74 75
2652 536 73 85
2653 836 73 76
2654 837 73 82
2655 845 73 74
2656 847 73 75
2657 855 79 80
2658 856 79 81
2659 857 79 82
2660 858 79 83
2661 869 77 79
2662 871 77 78
2663 865 78 79
2664 866 78 80
2665 867 78 81
2666 868 78 82
2667 1120 595 596
2668 1121 594 596
2669 1145 594 595
2670 1484 494 496
2671 1512 494 495
2672 1513 494 499
2673 1515 494 500
2674 301 495 496
2675 1514 495 499
2676 1516 495 500
2677 1523 495 497
2678 1518 488 494
2679 155 488 499
2680 145 488 489
2681 1550 488 491
2682 1551 488 493
2683 1556 488 490
2684 1557 488 492
2685 1291 484 485
2686 172 484 486
2687 3025 484 716
2688 3025 484 720
2689 3025 484 614
2690 1409 485 486
2691 1414 485 487
2692 1415 485 488
2693 1416 485 489
2694 1293 482 484
2695 1328 482 483
2696 1412 482 485
2697 1413 482 486
2698 1430 482 489
2699 3025 482 610
2700 201 483 484
2701 1330 483 485
2702 1331 483 486
2703 3025 483 614
2704 3025 483 611
2705 3025 483 719
2706 1300 479 480
2707 1327 479 483
2708 1340 479 482
2709 1341 479 481
2710 3025 479 723
2711 3025 479 614
2712 1292 481 484
2713 1332 481 483
2714 1389 481 552
2715 1410 481 485
2716 1411 481 486
2717 1429 481 482
2718 1290 480 484
2719 1302 480 481
2720 1305 480 482
2721 1329 480 483
2722 3025 480 614
2723 3025 480 720
2724 1298 476 477
2725 1299 476 480
2726 1333 476 479
2727 1336 476 478
2728 3025 476 723
2729 1506 347 351
2730 1707 347 348
2731 1708 347 349
2732 1710 347 350
2733 308 496 498
2734 1483 496 497
2735 1485 496 499
2736 1486 496 500
2737 1492 348 497
2738 1507 348 351
2739 1525 348 495
2740 1534 348 500
2741 1709 348 349
2742 342 348 350
2743 1712 348 352
2744 1400 497 498
2745 1489 497 500
2746 1490 497 501
2747 1524 497 499
2748 1392 500 502
2749 1526 500 501
2750 1527 500 503
2751 1529 500 504
2752 1564 503 504
2753 1565 503 505
2754 556 503 506
2755 363 503 507
2756 1399 499 502
2757 1517 499 500
2758 314 499 501
2759 1520 499 503
2760 1386 502 551
2761 1395 502 548
2762 1397 502 503
2763 1401 502 504
2764 1402 502 505
2765 1403 502 506
2766 1393 501 502
2767 1394 501 551
2768 1528 501 503
2769 1530 501 504
2770 1531 501 505
2771 1566 504 505
2772 1567 504 506
2773 1568 504 507
2774 1569 504 508
2775 651 505 548
2776 372 505 506
2777 1570 505 507
2778 1571 505 508
2779 1572 505 509
2780 316 478 480
2781 667 478 479
2782 1421 478 481
2783 1428 478 482
2784 1272 477 549
2785 1294 477 480
2786 409 477 479
2787 1301 477 481
2788 1304 477 548
2789 325 477 478
2790 1573 506 507
2791 1574 506 508
2792 1575 506 509
2793 373 506 510
2794 1297 474 477
2795 637 474 545
2796 14 474 475
2797 1313 474 544
2798 1315 474 541
2799 1318 474 478
2800 1339 474 476
2801 1303 475 477
2802 1334 475 476
2803 1335 475 479
2804 1342 475 478
2805 1989 445 446
2806 1990 445 447
2807 1691 346 347
2808 1692 346 348
2809 628 346 350
2810 1508 349 351
2811 1711 349 350
2812 1021 349 406
2813 1713 349 352
2814 1714 349 353
2815 1715 349 402
2816 1504 353 354
2817 1538 353 355
2818 1728 353 356
2819 1729 353 357
2820 1730 353 399
2821 1731 353 402
2822 1494 351 354
2823 1496 351 355
2824 1501 351 352
2825 1502 351 353
2826 1533 351 501
2827 1498 350 351
2828 1232 350 354
2829 1717 350 352
2830 631 350 353
2831 1503 352 354
2832 1532 352 501
2833 1537 352 355
2834 1586 352 504
2835 1727 352 353
2836 648 352 356
2837 1495 354 450
2838 1497 354 355
2839 1500 354 358
2840 1505 354 356
2841 1509 354 357
2842 1544 356 358
2843 1600 356 359
2844 1650 356 357
2845 1732 356 360
2846 1535 355 358
2847 1536 355 504
2848 54 355 356
2849 1539 355 359
2850 815 355 357
2851 1579 359 508
2852 1587 359 362
2853 1588 359 363
2854 298 359 360
2855 1597 359 361
2856 1511 358 449
2857 1540 358 361
2858 1541 358 359
2859 1542 358 362
2860 709 358 360
2861 97 512 513
2862 1631 512 514
2863 1632 512 515
2864 1633 512 516
2865 1578 508 509
2866 359 508 510
2867 1582 508 511
2868 1583 508 512
2869 443 509 510
2870 1584 509 511
2871 1585 509 512
2872 29 509 513
2873 1343 533 537
2874 728 533 536
2875 1432 533 534
2876 804 533 535
2877 736 536 539
2878 1344 536 537
2879 1345 536 538
2880 1425 536 540
2881 1426 536 541
2882 1346 534 537
2883 991 534 538
2884 1434 534 536
2885 993 534 535
2886 1438 530 533
2887 421 530 532
2888 1444 530 534
2889 1458 530 531
2890 1475 339 342
2891 1481 339 341
2892 1690 339 346
2893 845 339 340
2894 1699 335 336
2895 1704 335 337
2896 1693 336 339
2897 1694 336 337
2898 1695 336 338
2899 1698 336 340
2900 1479 337 341
2901 1696 337 339
2902 1702 337 338
2903 969 337 340
2904 1700 332 336
2905 1705 332 337
2906 1720 332 333
2907 1800 332 335
2908 1814 332 403
2909 1824 332 334
2910 685 333 336
2911 1703 333 337
2912 1721 333 334
2913 1723 333 335
2914 1477 340 342
2915 1482 340 341
2916 1499 340 354
2917 1716 340 350
2918 1543 357 358
2919 736 357 361
2920 1599 357 359
2921 1733 357 360
2922 1546 360 361
2923 1594 360 362
2924 1595 360 363
2925 776 360 364
2926 1545 361 364
2927 782 361 365
2928 718 361 362
2929 1598 361 363
2930 1645 367 369
2931 1646 367 370
2932 833 367 371
2933 1647 367 383
2934 1648 367 384
2935 1649 367 387
2936 1650 367 368
2937 1589 362 363
2938 1590 362 364
2939 723 362 365
2940 1591 362 366
2941 224 363 364
2942 1592 363 365
2943 780 363 366
2944 1593 363 512
2945 1596 363 367
2946 1601 364 365
2947 1602 364 366
2948 1603 364 368
2949 1606 364 367
2950 245 365 366
2951 1604 365 368
2952 1607 365 367
2953 1608 365 369
2954 1605 366 368
2955 10 366 367
2956 1609 366 369
2957 1610 366 370
2958 1450 370 373
2959 1654 370 371
2960 1655 370 372
2961 1656 370 374
2962 1431 532 533
2963 1433 532 536
2964 1441 532 534
2965 1442 532 535
2966 1449 369 373
2967 1651 369 370
2968 1652 369 371
2969 1653 369 372
2970 1459 526 528
2971 1460 526 529
2972 955 526 527
2973 1456 529 530
2974 1457 529 531
2975 1454 528 529
2976 916 528 530
2977 1455 528 531
2978 1246 527 528
2979 1462 527 529
2980 143 531 533
2981 1443 531 532
2982 992 531 534
2983 1445 531 535
2984 1701 334 336
2985 1706 334 337
2986 315 334 335
2987 1325 368 369
2988 1611 368 370
2989 1612 368 371
2990 1613 368 372
2991 1614 368 384
2992 1463 374 526
2993 1678 374 376
2994 1679 374 377
2995 1681 374 375
2996 1451 371 373
2997 87 371 372
2998 1657 371 374
2999 1659 371 380
3000 1660 371 381
3001 850 373 374
3002 1453 373 375
3003 1452 372 373
3004 1658 372 374
3005 211 144 145
3006 216 144 146
3007 213 145 147
3008 217 145 146
3009 335 146 148
3010 336 146 147
3011 212 141 143
3012 219 141 142
3013 220 139 141
3014 245 139 140
3015 3024 139 432
3016 221 140 141
3017 243 140 142
3018 97 138 139
3019 98 138 140
3020 679 37 38
3021 752 37 39
3022 3024 37 418
3023 3024 37 313
3024 3024 37 421
3025 744 33 36
3026 746 33 37
3027 758 33 34
3028 767 33 35
3029 3024 33 425
3030 3024 33 316
3031 678 36 38
3032 743 36 37
3033 751 36 39
3034 3024 36 316
3035 3024 36 312
3036 13 125 133
3037 15 125 127
3038 16 125 128
3039 23 125 137
3040 26 125 126
3041 31 125 138
3042 6 122 124
3043 30 122 125
3044 86 122 138
3045 91 122 123
3046 92 122 137
3047 96 122 139
3048 99 122 126
3049 93 137 138
3050 129 137 139
3051 3024 137 432
3052 260 23 24
3053 265 23 25
3054 3024 23 430
3055 464 26 98
3056 509 26 27
3057 510 26 28
3058 511 26 29
3059 512 26 30
3060 452 25 102
3061 504 25 26
3062 505 25 29
3063 506 25 27
3064 507 25 98
3065 508 25 30
3066 3024 25 427
3067 3024 25 426
3068 759 29 30
3069 761 29 31
3070 763 29 33
3071 824 29 32
3072 3024 29 425
3073 770 28 30
3074 772 28 31
3075 822 28 29
3076 826 28 32
3077 748 32 36
3078 764 32 33
3079 765 32 34
3080 827 32 35
3081 3024 32 316
3082 17 128 132
3083 19 128 133
3084 35 128 129
3085 36 128 130
3086 18 129 132
3087 20 129 133
3088 37 129 130
3089 43 129 131
3090 33 127 128
3091 34 127 129
3092 38 126 127
3093 39 126 128
3094 40 126 129
3095 262 22 23
3096 264 22 24
3097 285 592 594
3098 283 592 593
3099 1190 591 593
3100 1219 591 592
3101 1144 593 595
3102 406 593 594
3103 1221 558 559
3104 1222 558 560
3105 878 558 561
3106 1223 558 562
3107 1228 555 558
3108 1204 555 556
3109 1261 555 557
3110 1194 556 590
3111 1224 556 558
3112 1257 556 557
3113 1227 554 558
3114 1238 554 559
3115 1240 554 562
3116 437 554 556
3117 1260 554 557
3118 1284 554 555
3119 1195 557 590
3120 1220 557 591
3121 1225 557 558
3122 1263 557 559
3123 584 557 561
3124 1264 557 562
3125 1226 553 558
3126 1239 553 562
3127 1258 553 556
3128 1259 553 557
3129 1269 553 554
3130 1283 553 555
3131 1262 552 556
3132 1277 552 553
3133 578 552 554
3134 580 552 555
3135 1278 498 554
3136 1382 498 555
3137 1384 498 502
3138 1385 498 551
3139 1390 498 500
3140 1391 498 501
3141 1398 498 499
3142 1363 456 458
3143 1366 456 457
3144 1276 551 553
3145 1279 551 554
3146 1383 551 555
3147 1387 551 552
3148 1267 550 553
3149 1268 550 554
3150 1275 550 551
3151 608 550 552
3152 1281 547 549
3153 1282 547 550
3154 1388 547 551
3155 1406 547 548
3156 1285 548 549
3157 1286 548 550
3158 1396 548 551
3159 1127 548 552
3160 1280 545 549
3161 1287 545 546
3162 1314 545 548
3163 1317 545 547
3164 1265 549 550
3165 1266 549 553
3166 1273 549 551
3167 1274 549 552
3168 1270 546 549
3169 1271 546 550
3170 949 546 547
3171 657 546 548
3172 1214 471 472
3173 1215 471 473
3174 1216 471 545
3175 1218 471 546
3176 1295 472 477
3177 1306 472 473
3178 1307 472 474
3179 1308 472 545
3180 1337 472 476
3181 3025 472 725
3182 3025 472 724
3183 1296 473 477
3184 1309 473 474
3185 1310 473 545
3186 1312 473 475
3187 1338 473 476
3188 1474 344 455
3189 637 344 346
3190 635 344 345
3191 1364 345 456
3192 1487 345 351
3193 1488 345 455
3194 1491 345 347
3195 623 345 346
3196 663 342 343
3197 1469 342 344
3198 1472 342 455
3199 1359 343 457
3200 1379 343 454
3201 1470 343 344
3202 1473 343 455
3203 1493 343 345
3204 1360 455 457
3205 1365 455 456
3206 1356 454 457
3207 1362 454 456
3208 1371 454 458
3209 1372 454 459
3210 1377 454 455
3211 1378 450 452
3212 1381 450 451
3213 1367 452 453
3214 936 452 454
3215 1253 453 460
3216 1355 453 457
3217 1361 453 456
3218 1368 453 454
3219 1369 453 458
3220 1370 453 459
3221 1376 453 455
3222 1373 451 452
3223 1374 451 453
3224 1375 451 454
3225 1321 540 542
3226 1407 540 543
3227 939 540 541
3228 1316 541 545
3229 1322 541 542
3230 1408 541 543
3231 1423 541 544
3232 1289 544 546
3233 315 544 545
3234 1405 544 547
3235 1422 544 548
3236 954 543 546
3237 1319 543 545
3238 1404 543 547
3239 1424 543 544
3240 1288 542 546
3241 1311 542 545
3242 1323 542 544
3243 1225 542 543
3244 1320 539 542
3245 1325 539 540
3246 1326 539 541
3247 733 537 538
3248 1349 537 539
3249 1351 537 540
3250 1352 537 541
3251 963 538 542
3252 1350 538 539
3253 1353 538 540
3254 1354 538 541
3255 1324 535 539
3256 1347 535 537
3257 1348 535 538
3258 1427 535 540
3259 1435 535 536
3260 1476 338 342
3261 1480 338 341
3262 1697 338 339
3263 781 338 340
3264 247 341 342
3265 1471 341 343
3266 1478 341 450
3267 1380 449 451
3268 1510 449 450
3269 545 448 449
3270 995 448 450
3271 337 147 148
3272 384 147 149
3273 241 148 149
3274 9 133 134
3275 28 133 135
3276 10 134 135
3277 11 134 136
3278 12 134 137
3279 127 136 137
3280 128 136 138
3281 3024 136 433
3282 3024 136 432
3283 125 135 136
3284 126 135 137
3285 8 132 134
3286 14 132 133
3287 21 131 132
3288 22 131 133
3289 24 130 132
3290 25 130 133
3291 42 130 131
3292 1189 590 593
3293 1196 590 592
3294 1198 590 591
3295 1229 559 560
3296 1230 559 561
3297 1231 559 562
3298 1232 559 563
3299 1156 560 564
3300 458 560 561
3301 1233 560 562
3302 1234 560 563
3303 1122 589 596
3304 1188 589 593
3305 1192 589 590
3306 1197 589 591
3307 319 588 589
3308 1191 588 590
3309 1158 562 564
3310 1161 562 565
3311 1179 562 566
3312 1237 562 563
3313 1157 561 564
3314 1160 561 565
3315 1235 561 562
3316 1236 561 563
3317 1125 565 585
3318 1151 565 566
3319 1152 565 567
3320 1153 565 568
3321 1154 565 569
3322 1155 565 587
3323 873 587 588
3324 1193 587 589
3325 680 586 587
3326 1147 586 588
3327 3025 586 730
3328 1357 457 458
3329 1358 457 459
3330 1159 563 564
3331 1162 563 565
3332 1180 563 566
3333 1181 563 567
3334 1163 566 567
3335 1164 566 568
3336 1165 566 569
3337 1166 566 570
3338 1200 467 470
3339 1206 467 468
3340 1207 467 469
3341 3025 467 728
3342 1202 470 471
3343 1203 470 472
3344 3025 470 728
3345 1176 466 566
3346 1177 466 569
3347 1178 466 570
3348 1199 466 470
3349 1204 466 467
3350 1205 466 468
3351 1201 468 470
3352 1208 468 469
3353 1217 468 471
3354 912 469 470
3355 1213 469 471
3356 1248 458 462
3357 1254 458 460
3358 76 458 459
3359 1249 459 462
3360 1043 459 463
3361 1255 459 460
3362 1256 459 461
3363 1241 460 462
3364 1244 460 463
3365 1250 460 461
3366 1251 460 464
3367 1184 461 465
3368 1242 461 462
3369 1245 461 463
3370 1252 461 464
3371 1174 462 566
3372 1175 462 567
3373 1186 462 465
3374 1211 462 466
3375 177 462 463
3376 1243 462 464
3377 1187 463 465
3378 1212 463 466
3379 1246 463 464
3380 1247 463 546
3381 1185 464 465
3382 1209 464 466
3383 1210 464 468
3384 1173 465 570
3385 1182 465 466
3386 1183 465 467
3387 497 564 565
3388 1148 564 566
3389 1149 564 567
3390 1150 564 568
3391 1123 584 585
3392 1146 584 586
3393 3025 584 728
3394 1124 585 586
3395 895 585 587
3396 1117 583 584
3397 1119 583 585
3398 1126 568 585
3399 1061 568 571
3400 1139 568 572
3401 1170 568 569
3402 1171 568 570
3403 1136 567 571
3404 1167 567 568
3405 1168 567 569
3406 1169 567 570
3407 287 571 572
3408 1128 571 573
3409 1130 571 574
3410 1131 571 575
3411 1138 570 571
3412 1141 570 572
3413 1077 570 573
3414 1143 570 574
3415 1127 569 585
3416 1137 569 571
3417 1140 569 572
3418 1031 569 573
3419 1172 569 570
3420 1108 572 580
3421 1129 572 573
3422 1132 572 574
3423 1133 572 575
3424 1081 573 576
3425 1134 573 574
3426 1135 573 575
3427 1112 574 576
3428 1142 574 575
3429 1099 581 582
3430 1100 581 583
3431 1115 582 583
3432 1116 582 584
3433 1109 575 579
3434 1110 575 580
3435 1113 575 576
3436 1114 575 577
3437 1098 580 581
3438 1118 580 582
3439 1097 579 581
3440 1103 579 580
3441 1104 576 578
3442 1105 576 579
3443 1106 576 580
3444 1111 576 577
3445 980 577 578
3446 437 577 579
3447 1107 577 580
3448 1101 578 579
3449 1102 578 580
