LAMMPS data file via write_data, version 22 Jul 2025, timestep = 154, units = real

596 atoms
596 atom types
2256 bonds
2126 bond types

6.419 189.578 xlo xhi
12.012 187.39 ylo yhi
-111.479 90.067 zlo zhi

Masses

1 110
2 110
3 110
4 110
5 110
6 110
7 110
8 110
9 110
10 110
11 110
12 110
13 110
14 110
15 110
16 110
17 110
18 110
19 110
20 110
21 110
22 110
23 110
24 110
25 110
26 110
27 110
28 110
29 110
30 110
31 110
32 110
33 110
34 110
35 110
36 110
37 110
38 110
39 110
40 110
41 110
42 110
43 110
44 110
45 110
46 110
47 110
48 110
49 110
50 110
51 110
52 110
53 110
54 110
55 110
56 110
57 110
58 110
59 110
60 110
61 110
62 110
63 110
64 110
65 110
66 110
67 110
68 110
69 110
70 110
71 110
72 110
73 110
74 110
75 110
76 110
77 110
78 110
79 110
80 110
81 110
82 110
83 110
84 110
85 110
86 110
87 110
88 110
89 110
90 110
91 110
92 110
93 110
94 110
95 110
96 110
97 110
98 110
99 110
100 110
101 110
102 110
103 110
104 110
105 110
106 110
107 110
108 110
109 110
110 110
111 110
112 110
113 110
114 110
115 110
116 110
117 110
118 110
119 110
120 110
121 110
122 110
123 110
124 110
125 110
126 110
127 110
128 110
129 110
130 110
131 110
132 110
133 110
134 110
135 110
136 110
137 110
138 110
139 110
140 110
141 110
142 110
143 110
144 110
145 110
146 110
147 110
148 110
149 110
150 110
151 110
152 110
153 110
154 110
155 110
156 110
157 110
158 110
159 110
160 110
161 110
162 110
163 110
164 110
165 110
166 110
167 110
168 110
169 110
170 110
171 110
172 110
173 110
174 110
175 110
176 110
177 110
178 110
179 110
180 110
181 110
182 110
183 110
184 110
185 110
186 110
187 110
188 110
189 110
190 110
191 110
192 110
193 110
194 110
195 110
196 110
197 110
198 110
199 110
200 110
201 110
202 110
203 110
204 110
205 110
206 110
207 110
208 110
209 110
210 110
211 110
212 110
213 110
214 110
215 110
216 110
217 110
218 110
219 110
220 110
221 110
222 110
223 110
224 110
225 110
226 110
227 110
228 110
229 110
230 110
231 110
232 110
233 110
234 110
235 110
236 110
237 110
238 110
239 110
240 110
241 110
242 110
243 110
244 110
245 110
246 110
247 110
248 110
249 110
250 110
251 110
252 110
253 110
254 110
255 110
256 110
257 110
258 110
259 110
260 110
261 110
262 110
263 110
264 110
265 110
266 110
267 110
268 110
269 110
270 110
271 110
272 110
273 110
274 110
275 110
276 110
277 110
278 110
279 110
280 110
281 110
282 110
283 110
284 110
285 110
286 110
287 110
288 110
289 110
290 110
291 110
292 110
293 110
294 110
295 110
296 110
297 110
298 110
299 110
300 110
301 110
302 110
303 110
304 110
305 110
306 110
307 110
308 110
309 110
310 110
311 110
312 110
313 110
314 110
315 110
316 110
317 110
318 110
319 110
320 110
321 110
322 110
323 110
324 110
325 110
326 110
327 110
328 110
329 110
330 110
331 110
332 110
333 110
334 110
335 110
336 110
337 110
338 110
339 110
340 110
341 110
342 110
343 110
344 110
345 110
346 110
347 110
348 110
349 110
350 110
351 110
352 110
353 110
354 110
355 110
356 110
357 110
358 110
359 110
360 110
361 110
362 110
363 110
364 110
365 110
366 110
367 110
368 110
369 110
370 110
371 110
372 110
373 110
374 110
375 110
376 110
377 110
378 110
379 110
380 110
381 110
382 110
383 110
384 110
385 110
386 110
387 110
388 110
389 110
390 110
391 110
392 110
393 110
394 110
395 110
396 110
397 110
398 110
399 110
400 110
401 110
402 110
403 110
404 110
405 110
406 110
407 110
408 110
409 110
410 110
411 110
412 110
413 110
414 110
415 110
416 110
417 110
418 110
419 110
420 110
421 110
422 110
423 110
424 110
425 110
426 110
427 110
428 110
429 110
430 110
431 110
432 110
433 110
434 110
435 110
436 110
437 110
438 110
439 110
440 110
441 110
442 110
443 110
444 110
445 110
446 110
447 110
448 110
449 110
450 110
451 110
452 110
453 110
454 110
455 110
456 110
457 110
458 110
459 110
460 110
461 110
462 110
463 110
464 110
465 110
466 110
467 110
468 110
469 110
470 110
471 110
472 110
473 110
474 110
475 110
476 110
477 110
478 110
479 110
480 110
481 110
482 110
483 110
484 110
485 110
486 110
487 110
488 110
489 110
490 110
491 110
492 110
493 110
494 110
495 110
496 110
497 110
498 110
499 110
500 110
501 110
502 110
503 110
504 110
505 110
506 110
507 110
508 110
509 110
510 110
511 110
512 110
513 110
514 110
515 110
516 110
517 110
518 110
519 110
520 110
521 110
522 110
523 110
524 110
525 110
526 110
527 110
528 110
529 110
530 110
531 110
532 110
533 110
534 110
535 110
536 110
537 110
538 110
539 110
540 110
541 110
542 110
543 110
544 110
545 110
546 110
547 110
548 110
549 110
550 110
551 110
552 110
553 110
554 110
555 110
556 110
557 110
558 110
559 110
560 110
561 110
562 110
563 110
564 110
565 110
566 110
567 110
568 110
569 110
570 110
571 110
572 110
573 110
574 110
575 110
576 110
577 110
578 110
579 110
580 110
581 110
582 110
583 110
584 110
585 110
586 110
587 110
588 110
589 110
590 110
591 110
592 110
593 110
594 110
595 110
596 110

Atoms # bond

578 4 578 116.22743687304374 73.99345941856123 -61.624903071908285 0 0 0
579 4 579 115.38150618468013 70.85482540003687 -59.82318809399927 0 0 0
580 4 580 113.27299704407427 72.52269864235471 -56.97653363728227 0 0 0
581 4 581 109.55870042587563 73.13615295005036 -57.864314243854835 0 0 0
582 4 582 109.52169200305224 76.80152631723466 -58.74658812160683 0 0 0
576 4 576 119.39226690039105 73.40252818975512 -57.05519148754534 0 0 0
577 4 577 117.11153377632412 76.19414823762709 -58.62755300095275 0 0 0
589 4 589 96.56568882801206 78.60009297733811 -43.927438855499176 0 0 0
590 4 590 95.17973820602906 79.50644475181404 -40.410323839921396 0 0 0
591 4 591 94.06381016655861 76.07369307806613 -38.847398575353566 0 0 0
592 4 592 90.30975807191402 76.57248754724168 -38.54160520164307 0 0 0
593 4 593 89.92074498273878 78.25818251874745 -42.14537547775706 0 0 0
594 4 594 87.68861071619612 76.46032762789773 -44.64629955559159 0 0 0
595 4 595 89.68374709469215 77.63797069537857 -47.70165709031092 0 0 0
596 4 596 92.51929564350708 75.33385416666434 -48.82198150246507 0 0 0
561 4 561 102.7488009408672 72.10358379871428 -39.06667770058555 0 0 0
564 4 564 106.81049449984505 70.09593185344325 -41.10064198382337 0 0 0
565 4 565 107.18944502344797 73.61766563301913 -42.64954086218959 0 0 0
566 4 566 110.76018061780628 74.19736856259293 -41.34260645187148 0 0 0
567 4 567 112.04340326651987 70.86442662297553 -42.53839851447292 0 0 0
568 4 568 110.32518761381736 70.91292991779294 -45.90362321017153 0 0 0
569 4 569 112.03634373395998 74.19837799500583 -46.53079996365365 0 0 0
570 4 570 115.61529543403697 73.13137491151274 -45.85775678556547 0 0 0
571 4 571 115.42193277264327 70.56002036112422 -48.58931808394673 0 0 0
572 4 572 114.00726098844876 73.16309268529565 -51.14475678217307 0 0 0
583 4 583 107.30796413902691 78.24299852325936 -56.00382361938456 0 0 0
584 4 584 108.68219588307215 78.03033137896162 -52.41463392439109 0 0 0
585 4 585 107.00061791719504 76.0566234738928 -49.487602709198086 0 0 0
586 4 586 104.8008388369807 78.57745082124987 -47.62194827532168 0 0 0
587 4 587 102.7977821094643 78.34666863412932 -44.45885591141523 0 0 0
588 4 588 99.70401318260409 80.61928613080198 -44.42461007881648 0 0 0
464 4 464 120.28670814521232 75.51899646261083 -38.785802166621075 0 0 0
465 4 465 118.82055665220923 73.9028947080233 -41.86401645421768 0 0 0
466 4 466 116.96842837058661 77.21448154748794 -42.70379612553589 0 0 0
467 4 467 118.89129605968034 80.07654780312309 -44.394990201277395 0 0 0
468 4 468 120.33586395413813 82.26384536327109 -41.523280731434966 0 0 0
573 4 573 116.82122176418265 75.53432192846999 -50.80605431517433 0 0 0
574 4 574 119.44948212372877 72.67038808393512 -50.85438626665287 0 0 0
575 4 575 117.9168463612937 71.32927284164064 -54.152023006442754 0 0 0
470 4 470 115.35018960283841 83.63597268258218 -43.266231349436765 0 0 0
471 4 471 113.96986102799018 84.59990184041398 -39.80820991716243 0 0 0
472 4 472 112.35530517447775 88.20970510767252 -39.36247296268327 0 0 0
469 4 469 118.78948471705326 85.41636956429628 -42.942880901206536 0 0 0
494 4 494 97.3145015730676 80.81371299809827 -20.131290737704482 0 0 0
342 3 342 114.95750366046977 66.1586672212999 -20.46106093558661 0 0 0
343 3 343 113.10676283019936 66.87686811573397 -23.83183123729303 0 0 0
344 3 344 109.88045588127099 66.42330879351734 -21.836842841813837 0 0 0
345 3 345 107.62988703118897 69.53508741264017 -21.021851064230393 0 0 0
355 3 355 114.99733522090058 79.75637050872659 -20.172663893826403 0 0 0
453 4 453 114.01223810102834 73.72324610968862 -28.3478841587129 0 0 0
454 4 454 114.22125962955496 70.0744748207236 -27.02168534156557 0 0 0
455 4 455 111.31187940261856 70.64185730220917 -24.503879010212874 0 0 0
456 4 456 109.14222385941773 72.11699098433444 -27.35532909088092 0 0 0
457 4 457 110.24259641746875 69.16297321619898 -29.483075695701295 0 0 0
458 4 458 112.87142797893866 70.4564171915345 -31.847223003090615 0 0 0
462 4 462 116.28268263538088 71.98307110361282 -37.708589602762146 0 0 0
496 4 496 99.95927772087907 76.33878247383596 -21.823550059599487 0 0 0
497 4 497 103.58869549112583 75.64887326791512 -23.132336891848297 0 0 0
498 4 498 103.99099952397084 78.3386041278879 -25.641469880022253 0 0 0
499 4 499 102.15870396146663 81.20406043513998 -23.795108700094822 0 0 0
500 4 500 104.2675946775877 80.67231397171713 -20.847422271454786 0 0 0
501 4 501 107.41973432763865 80.33546817261663 -23.04536826232813 0 0 0
546 4 546 114.66939000771335 81.89627163385038 -34.13881062658534 0 0 0
547 4 547 113.06648674035733 81.81239956743781 -30.711372859279315 0 0 0
550 4 550 108.79886864424131 79.770630087924 -33.265921401534605 0 0 0
551 4 551 106.67148903995503 80.64403268784244 -30.291355245484862 0 0 0
553 4 553 104.13393441700146 80.52287961972631 -35.09185955254763 0 0 0
554 4 554 103.39210646295948 77.63528498708186 -32.6343367580102 0 0 0
555 4 555 100.4036362154293 79.77090734905788 -31.255166297148225 0 0 0
556 4 556 99.43261254512865 80.51423557808593 -34.853817614160725 0 0 0
557 4 557 99.722243297687 77.14749053686434 -36.78136277666199 0 0 0
558 4 558 100.51703538579285 74.6255167745764 -33.88466132205834 0 0 0
559 4 559 104.03241915382915 73.3493111581955 -33.60605288112009 0 0 0
560 4 560 103.65778622729209 70.1670609303154 -35.81470813327776 0 0 0
562 4 562 105.61798975706515 74.5517423143927 -38.29544945378584 0 0 0
563 4 563 108.22067135818375 71.6865530137489 -37.83540834024495 0 0 0
358 3 358 120.29305712922952 80.5293832995502 -20.75058979046308 0 0 0
449 4 449 123.92423131236352 75.08510094235643 -21.359371646623217 0 0 0
450 4 450 120.70272988925127 73.35034496182064 -22.292132289381424 0 0 0
451 4 451 119.62969859987318 72.40653394018393 -25.886375259602957 0 0 0
452 4 452 116.92810877036884 75.1405289692 -26.290584149171156 0 0 0
459 4 459 116.64829804992152 70.53762739885289 -32.344894650795894 0 0 0
460 4 460 119.14950455215353 73.32285078329569 -33.3071475349006 0 0 0
461 4 461 119.7873148458453 71.39694043419496 -36.50418136288121 0 0 0
463 4 463 116.79803448246138 75.83921769018905 -37.314192500239464 0 0 0
487 4 487 96.2146723669098 89.32465841830648 -24.14780889180405 0 0 0
299 3 299 100.27098880084317 97.8998072377215 -20.1576858257793 0 0 0
473 4 473 113.78029067084397 90.96121227692697 -37.081132237395046 0 0 0
474 4 474 113.3894079277818 90.62937303621149 -33.30718719925209 0 0 0
475 4 475 111.75118263448869 94.10020429737025 -33.47374724437566 0 0 0
476 4 476 109.22612978464319 92.79350078458366 -36.05872575186917 0 0 0
477 4 477 108.45708923199815 89.71760598718542 -33.83267993952207 0 0 0
478 4 478 107.90544078100432 91.93592626830912 -30.740353553510303 0 0 0
479 4 479 105.43607871056116 93.7616730976298 -32.901699327521925 0 0 0
480 4 480 103.93047805099953 90.39985469559912 -34.282848616487584 0 0 0
481 4 481 103.3047091226153 89.31512786489942 -30.71901494650907 0 0 0
482 4 482 101.65475867726094 92.56519790582517 -29.950718553704007 0 0 0
483 4 483 99.38720133023914 92.37678817076406 -32.93867472182746 0 0 0
484 4 484 98.38377351671245 88.68786657112173 -32.520548190289425 0 0 0
485 4 485 98.60459766136209 87.74176073618604 -28.852806283872724 0 0 0
486 4 486 98.36685888173722 90.99737647972603 -26.910599523776835 0 0 0
488 4 488 99.09159676190282 86.93940075470739 -23.23127408782305 0 0 0
489 4 489 101.40641092995934 90.01357969837505 -23.27572794851636 0 0 0
490 4 490 99.32881994246104 92.38097557308342 -21.02430048401078 0 0 0
502 4 502 106.70621170859467 83.63728432737902 -25.083348582511018 0 0 0
503 4 503 106.71030745830289 85.87235345017686 -21.93312003176186 0 0 0
504 4 504 109.95382159994611 84.3022752021619 -20.77143752837484 0 0 0
505 4 505 111.5395032168983 84.90438177744329 -24.183887888472032 0 0 0
506 4 506 110.48988803785552 88.61272292523888 -24.124892257615578 0 0 0
507 4 507 111.88409798685751 88.90747301381623 -20.63689248407677 0 0 0
508 4 508 115.2265125761026 87.35878222632998 -21.7980777366653 0 0 0
509 4 509 115.44458221264817 89.93494250313742 -24.51916104128055 0 0 0
510 4 510 114.19576803172606 92.75013948878133 -22.10561170890876 0 0 0
544 4 544 115.81246384818066 85.62194306356736 -30.570728555307532 0 0 0
545 4 545 114.63987925496454 85.72150122362481 -34.19219644400988 0 0 0
548 4 548 110.30928847095589 84.44767721761305 -30.891378348598558 0 0 0
549 4 549 109.14857189646968 83.32073681308626 -34.37082978688075 0 0 0
552 4 552 104.60743213702958 83.07812225525068 -32.30249378970888 0 0 0
359 3 359 119.31405295368168 84.1954974226224 -20.09587071417717 0 0 0
362 3 362 123.75634610205114 85.93861153754473 -22.30606575963234 0 0 0
365 3 365 128.4786308814704 86.98601000733775 -22.223917510157065 0 0 0
366 3 366 127.32519946713447 90.51218874584403 -22.930193546779787 0 0 0
368 3 368 132.41075008789628 90.1391036172244 -20.816464235344277 0 0 0
369 3 369 132.206848255888 91.50121463440095 -24.39102346854636 0 0 0
370 3 370 132.04628846674277 94.98738761338002 -22.871047273496817 0 0 0
512 4 512 119.53777144658538 92.10537097326915 -22.492457319851212 0 0 0
513 4 513 118.073726111239 95.46103638833134 -23.667594453088498 0 0 0
514 4 514 118.00017235886692 96.84820160781823 -20.0586613629191 0 0 0
516 4 516 122.76640757332501 97.0706029875075 -23.122741511759287 0 0 0
531 4 531 127.94382326758921 99.55201339612455 -29.913887834924562 0 0 0
532 4 532 126.62449137242231 97.14441527825865 -27.226031924922495 0 0 0
533 4 533 123.0536350390094 97.59560683717439 -28.369863866759783 0 0 0
534 4 534 124.18029117119772 96.99963054373673 -32.0092353372388 0 0 0
535 4 535 125.90548839720128 93.74963851842598 -30.685153737249966 0 0 0
536 4 536 122.54076509545062 92.41247728393806 -29.234823715739108 0 0 0
537 4 537 120.58801476359707 93.17102871567882 -32.45189644823078 0 0 0
538 4 538 123.32510177768249 91.35623161522795 -34.47467470575213 0 0 0
539 4 539 125.19881041663133 88.43350257271473 -32.96722152503676 0 0 0
540 4 540 122.92020325805017 87.64900729423766 -30.023618309008803 0 0 0
541 4 541 119.75206721711662 88.51818481284752 -31.83259232342421 0 0 0
542 4 542 120.02897177756951 85.74381307795315 -34.32460904588058 0 0 0
543 4 543 118.64939107870428 83.24256012454369 -31.65238564631909 0 0 0
371 3 371 135.30193907182232 94.3853510466378 -21.09382963819169 0 0 0
372 3 372 137.16624414500882 93.21577445487779 -24.216381072747478 0 0 0
373 3 373 135.6439975791401 95.67387989611278 -26.745498372905907 0 0 0
374 3 374 136.01419342308984 99.04588096898384 -24.691983315538614 0 0 0
517 4 517 120.8135399038184 100.38935653839052 -22.71670882390049 0 0 0
519 4 519 126.02687243026423 100.3033982817444 -20.718607092282237 0 0 0
520 4 520 124.571908945797 102.59383935423627 -23.312510800693747 0 0 0
521 4 521 123.5359085727949 105.32930652596121 -20.9430341595329 0 0 0
523 4 523 129.29811950114993 104.7532888700404 -19.907070959265322 0 0 0
524 4 524 130.33931045930916 108.18173269505955 -21.59562566679002 0 0 0
525 4 525 133.95388470297283 107.29114516330051 -22.175860222220244 0 0 0
526 4 526 133.2700607101016 105.29949947139305 -25.401970678492034 0 0 0
527 4 527 132.90763797905942 107.56246452465678 -28.386407796884026 0 0 0
528 4 528 129.96882829190815 105.59182962339777 -29.813834648160782 0 0 0
529 4 529 127.36978361178615 104.43613160970735 -27.265537816171566 0 0 0
530 4 530 125.15732816569377 102.31075231062627 -29.56184406222717 0 0 0
375 3 375 139.52371598225693 100.26662676029342 -24.003065949678255 0 0 0
376 3 376 138.52345124942775 103.69235394298443 -22.640120112327807 0 0 0
128 1 128 78.81874980423287 126.4827838413285 -20.010357019480455 0 0 0
131 1 131 76.16794915844719 134.59811098317678 -20.29088654333979 0 0 0
132 1 132 74.87424455588429 131.48211808181978 -22.02413144981839 0 0 0
129 1 129 79.95153917297694 130.03582036164366 -20.640984152191024 0 0 0
307 3 307 103.3897267445319 81.79426614296024 -11.54568878481917 0 0 0
339 3 339 114.39174940199668 66.94502938723303 -15.69757593062339 0 0 0
340 3 340 115.98403992874897 70.3536505319555 -16.788738375532166 0 0 0
346 3 346 107.6157906460785 68.92408279308496 -17.24399959703673 0 0 0
347 3 347 106.05135328658781 71.8348973131592 -15.14361986640032 0 0 0
348 3 348 105.96464275951105 75.44736837896659 -16.54482896227072 0 0 0
349 3 349 108.39214831883227 76.25338212497809 -13.667404513790927 0 0 0
350 3 350 110.94460770330637 74.05332766959243 -15.465294560893772 0 0 0
351 3 351 110.23989118554174 75.87806615041055 -18.791374178018764 0 0 0
352 3 352 110.85870526280092 79.18717368731413 -17.109817254681058 0 0 0
353 3 353 114.09542508715403 77.92255132289219 -15.317867393807374 0 0 0
354 3 354 115.3329998241771 76.33316506903141 -18.661050525683176 0 0 0
399 3 399 115.7075003449582 81.25415318363625 -9.638901403068695 0 0 0
400 3 400 114.8778860374709 81.02150867336755 -5.810272427544604 0 0 0
401 3 401 111.13879138568679 81.23619656505335 -6.458432899223214 0 0 0
402 3 402 110.78959217003121 78.87835451697892 -9.43924588120473 0 0 0
403 3 403 112.78625425727029 76.2670880841251 -7.619766641014541 0 0 0
404 3 404 110.77424317843854 76.83566633435728 -4.459863992428657 0 0 0
405 3 405 107.36692565826762 76.4843695981094 -6.094832704808876 0 0 0
406 3 406 108.41633582888113 73.27812184533327 -7.820777263457358 0 0 0
407 3 407 110.03939317624287 71.95234167204434 -4.529600131453891 0 0 0
409 3 409 104.38505160014887 73.94693919006143 -3.4045348511205478 0 0 0
410 3 410 103.02708209914876 77.30501871656129 -4.535109995675313 0 0 0
495 4 495 99.99234054031847 78.50956325137034 -18.59771934389483 0 0 0
326 3 326 126.1591231669531 80.9079174270606 -7.824966373697911 0 0 0
327 3 327 124.08604183091404 79.06715353711769 -5.130332439746784 0 0 0
328 3 328 120.79744672457487 78.82796561005978 -7.035472383807718 0 0 0
329 3 329 122.53661535220084 77.57821690534583 -10.197925155708234 0 0 0
330 3 330 124.08805425765408 74.92332471430888 -7.993579339596576 0 0 0
331 3 331 120.47728923003007 74.21646315260823 -6.473167994716974 0 0 0
332 3 332 118.972495898269 73.81613119377499 -9.95269439348875 0 0 0
333 3 333 121.57357240119966 71.19705495059952 -10.997631149723539 0 0 0
334 3 334 121.53072643540013 69.50488573733364 -7.700166689325144 0 0 0
335 3 335 117.91167692327748 68.56337998901013 -7.401329482922356 0 0 0
336 3 336 116.48796265797209 68.93045108976762 -10.974365840815393 0 0 0
337 3 337 119.28470829234843 68.16211462353776 -13.57766598657407 0 0 0
338 3 338 117.8366250400798 65.25679298775873 -15.5640240873411 0 0 0
341 3 341 117.94398009741138 68.53969841905062 -19.545026109593856 0 0 0
356 3 356 116.37236072541272 81.5931106705714 -17.129443065813728 0 0 0
357 3 357 119.68300920776812 79.6924833007761 -16.988483893669954 0 0 0
448 4 448 124.3298368900114 73.7965998517366 -17.717082172330123 0 0 0
188 2 188 98.05604018224467 96.23400726294975 -1.4642660136305392 0 0 0
189 2 189 94.96215293689363 94.66594433572314 -3.034712936542798 0 0 0
193 2 193 90.24519373948571 98.28383867422903 -3.7779441322277334 0 0 0
195 2 195 85.07424999669077 98.5172299308977 -2.9250349440410575 0 0 0
491 4 491 97.75293916428413 89.66893778877767 -18.78769877889131 0 0 0
493 4 493 96.74196062846573 84.6154728175509 -19.725838523548813 0 0 0
300 3 300 102.67130195042111 94.95312091501324 -19.81687847771364 0 0 0
301 3 301 102.35913062042344 92.21783998760245 -17.105650813140077 0 0 0
302 3 302 104.84061545972392 92.10183525205211 -14.189851845869105 0 0 0
303 3 303 107.77566899883159 89.62107219749159 -14.378357568342498 0 0 0
304 3 304 106.46020526443296 86.60011415160564 -12.421915201350224 0 0 0
305 3 305 102.5535599202848 86.87499931380626 -12.030066734034634 0 0 0
306 3 306 101.64574478609526 83.89096802149508 -14.215797544918749 0 0 0
308 3 308 101.45651401757819 83.4185845246188 -8.769876792665732 0 0 0
309 3 309 103.89018241970116 85.91648833491838 -7.496926026553017 0 0 0
310 3 310 103.97194542602057 89.73987098222543 -7.348952097629849 0 0 0
311 3 311 107.40034293499517 91.30987147502316 -7.044665688396285 0 0 0
312 3 312 106.23009816742416 93.28242339189737 -4.038346592650661 0 0 0
313 3 313 105.77069992326264 89.99615389790372 -2.0320439186064685 0 0 0
314 3 314 109.29659583616609 88.85095617377662 -3.219107198633181 0 0 0
315 3 315 110.78315360646437 92.22610905369199 -2.0581987040623675 0 0 0
394 3 394 116.12876536912586 90.00684150010731 -9.675727204441735 0 0 0
397 3 397 114.09738798599865 86.22769116971259 -6.920499618223864 0 0 0
398 3 398 113.41482327123418 84.27541577645451 -10.170885641270893 0 0 0
492 4 492 99.2155826934859 86.47316125637838 -17.1795253159011 0 0 0
323 3 323 121.17073968741337 82.97466015405496 -1.8322615890972354 0 0 0
324 3 324 123.66797995111071 84.32993744375763 -4.4199293836005555 0 0 0
325 3 325 123.27170162956304 83.44022395515557 -8.194902920544239 0 0 0
360 3 360 121.95567890656118 84.2992905199919 -17.254840009922606 0 0 0
361 3 361 124.39931829579983 83.07374021239448 -19.886566225790848 0 0 0
363 3 363 123.98576514156893 88.67531414815603 -19.590908582871563 0 0 0
364 3 364 127.42284108922996 87.20614048229478 -18.569226548697767 0 0 0
367 3 367 129.08093731443896 91.70763710425905 -19.703931747966003 0 0 0
382 3 382 132.26645018044957 97.73145310547649 -13.69962889062889 0 0 0
383 3 383 129.59116429384986 96.01201253171921 -15.847979736250556 0 0 0
384 3 384 130.5230308668614 92.47194517792587 -14.577072379967985 0 0 0
385 3 385 130.04597100570533 93.89378271396471 -10.943068990794265 0 0 0
386 3 386 126.76081603280804 95.53994408699762 -12.005248431180295 0 0 0
387 3 387 125.59655721748291 92.13109236358567 -13.336097883213991 0 0 0
388 3 388 126.56060042384647 90.0726436037486 -10.2009428690089 0 0 0
389 3 389 125.0004244860829 92.62471586868246 -7.868029406080998 0 0 0
390 3 390 122.40438684578669 94.8899382431101 -9.46998434471794 0 0 0
391 3 391 121.19867835159583 92.63474045033719 -12.452282631679047 0 0 0
392 3 392 121.64759368596789 89.75326314949406 -10.038380014952226 0 0 0
393 3 393 119.06188560249676 90.60709932973043 -7.374222104919014 0 0 0
395 3 395 117.80249822172374 86.8083661878841 -10.947482312343137 0 0 0
396 3 396 117.94045530956161 85.65588463978526 -7.280984522343134 0 0 0
511 4 511 116.96359728185082 92.10226830893045 -19.57966032061154 0 0 0
515 4 515 121.69182964318738 96.04091612237711 -19.477063488852615 0 0 0
380 3 380 137.04267422415842 96.80764260434984 -16.924352394884153 0 0 0
381 3 381 135.05133218206728 95.17786002778115 -14.094122542894194 0 0 0
145 1 145 60.84426947053864 110.41105338890884 -2.9310747554253602 0 0 0
112 1 112 76.8729036695983 109.2149845159375 -3.481231012142067 0 0 0
113 1 113 75.31216997518604 109.02517749217463 -6.960381535992424 0 0 0
114 1 114 73.25553912070103 112.2597819875424 -6.860612370089399 0 0 0
115 1 115 76.40637557326507 113.92523197469947 -5.667601700934455 0 0 0
116 1 116 78.48221507533728 112.12976778037249 -8.507819694805733 0 0 0
117 1 117 75.78826946977985 113.35690936571251 -11.043557098892737 0 0 0
118 1 118 75.83276836405474 116.76690194398486 -9.326001701652144 0 0 0
119 1 119 79.63379407912193 116.94097142204281 -10.034896404879161 0 0 0
120 1 120 79.37415849755735 116.61220823665698 -13.853177318710046 0 0 0
140 1 140 71.80482813422023 117.11660502127971 -5.8330434029646865 0 0 0
141 1 141 68.2245313433779 115.64081249917517 -5.254774576994468 0 0 0
142 1 142 66.79116624757309 116.54225519223417 -1.7576737124029638 0 0 0
143 1 143 63.39470778542421 115.0913208125217 -2.5331627457738644 0 0 0
3 1 3 96.67367582730725 105.53651035244998 -1.909882428027642 0 0 0
4 1 4 93.87031856044983 106.88724209684766 -4.163929059174978 0 0 0
5 1 5 92.1033566781194 109.40598266474493 -1.7324152501227732 0 0 0
6 1 6 88.52154107779964 109.5253258578001 -2.9877913126306335 0 0 0
7 1 7 88.31644714395809 106.39127232876443 -5.210054350840187 0 0 0
8 1 8 86.97122477869114 103.76791928499705 -2.588180339821602 0 0 0
9 1 9 84.03321251906584 106.09976121077337 -1.9946221114310054 0 0 0
10 1 10 83.62362884398247 106.52456123256535 -5.861671835252425 0 0 0
11 1 11 85.40671025856795 109.71043387413204 -6.861969255548733 0 0 0
12 1 12 88.54324707725104 110.27785782155705 -8.971269313029834 0 0 0
13 1 13 91.04406083892066 113.15109322803988 -8.20525633177762 0 0 0
14 1 14 90.07916839920786 114.34331632304709 -11.752491664072892 0 0 0
15 1 15 86.35312183127891 114.37846787549006 -10.860747067137371 0 0 0
16 1 16 87.08732553477525 116.67601165362264 -7.846599577850826 0 0 0
192 2 192 93.84303312579175 99.72327986933591 -4.25442867782049 0 0 0
194 2 194 87.14875653480043 99.84309975877927 -5.756249419296736 0 0 0
1 1 1 102.20461027071664 101.96870200906301 -4.310624585039539 0 0 0
2 1 2 100.00264318359767 105.03318181501652 -3.903735819513425 0 0 0
518 4 518 122.44612770523626 100.59910268503954 -19.22541191006572 0 0 0
522 4 522 126.01762775629945 104.94354631322996 -18.08539758700183 0 0 0
377 3 377 136.91002987625288 102.99108451389142 -19.137787225795076 0 0 0
378 3 378 139.39492316323916 102.9226718213885 -16.351107437436525 0 0 0
379 3 379 137.45152986600272 99.96724359247952 -14.888539649836318 0 0 0
121 1 121 76.32902258336811 118.76679578045052 -13.896572990801534 0 0 0
122 1 122 77.75355565983264 121.65023231660018 -11.728668885190439 0 0 0
124 1 124 78.77555645228445 121.4735060766956 -17.29042313203935 0 0 0
125 1 125 76.9258690543161 124.48674983708113 -15.825463905230254 0 0 0
130 1 130 78.84678984960458 132.7199030832972 -18.13112278338356 0 0 0
133 1 133 74.18860669114984 129.78755102045065 -18.636309702757163 0 0 0
134 1 134 70.80126987912485 128.4183695384723 -17.489150334650784 0 0 0
135 1 135 69.58154987412249 130.7716170747145 -14.645607263253282 0 0 0
136 1 136 69.58512514503258 128.1726976515763 -11.940114617992405 0 0 0
137 1 137 72.58160092599014 125.90529412225602 -11.39232852688351 0 0 0
138 1 138 71.93916590687218 121.9916946996689 -11.14830279627942 0 0 0
139 1 139 72.01456978547823 120.69160015256311 -7.573868281943083 0 0 0
17 1 17 89.50693499022572 118.7987547149415 -10.072611738975658 0 0 0
18 1 18 86.72489083148317 119.18910758066431 -12.605432450865163 0 0 0
19 1 19 84.98257793461805 121.5456675604496 -10.227148501064288 0 0 0
20 1 20 86.27957850031649 125.1603404368138 -9.351581208426445 0 0 0
21 1 21 88.79452470385618 125.15220094694195 -6.308032041725312 0 0 0
22 1 22 86.80216411914537 127.71095912707075 -4.512699455609623 0 0 0
23 1 23 83.39155310499474 125.83406442486498 -4.5108076894890505 0 0 0
123 1 123 80.78614207330469 121.20723580237522 -14.104693989326268 0 0 0
126 1 126 80.27476860076084 126.23407359779715 -14.937772286258353 0 0 0
127 1 127 81.9471599913166 125.16682672042946 -18.330280192664294 0 0 0
444 3 444 107.29673956056592 62.456309357000045 5.058896727942107 0 0 0
445 3 445 107.81342821191934 61.95257706818317 8.955757317312614 0 0 0
446 3 446 106.57494526252876 63.12796919007434 12.372973614764852 0 0 0
294 2 294 95.13523353912026 80.10719268949244 10.24349613352428 0 0 0
295 2 295 94.67251237682298 80.98521624744392 6.547769380080521 0 0 0
298 2 298 94.62781741202214 80.78169886765541 -0.4987538556097728 0 0 0
408 3 408 107.76985767465617 73.12029044174055 -1.7131659653495215 0 0 0
411 3 411 100.65601820258571 78.02929389169086 -1.5267486941105441 0 0 0
412 3 412 103.48812347627738 77.12683260739588 0.8992206064878174 0 0 0
413 3 413 105.88380776557221 79.50513182231215 -0.7083620284073162 0 0 0
415 3 415 102.76201152452248 81.42588780911895 3.0279423049628433 0 0 0
416 3 416 106.39806729620965 81.5571355374069 4.049769031527865 0 0 0
435 3 435 110.08359279963305 80.5507318693889 12.915658411124362 0 0 0
436 3 436 108.15812285035794 79.39224648678974 9.844887815176543 0 0 0
437 3 437 110.47544881694951 76.9549359548542 7.898792548988927 0 0 0
438 3 438 110.76919942998934 75.67113785755943 4.289897357309143 0 0 0
439 3 439 110.86360876125329 71.7337844528995 4.528001971673557 0 0 0
440 3 440 109.21483049191035 68.55370641156425 2.956803093854463 0 0 0
441 3 441 109.87481563888863 66.44138905001817 6.088103286650394 0 0 0
442 3 442 106.24516611241481 67.38192067758746 7.476169238527016 0 0 0
443 3 443 104.76446139457481 65.39171802398977 4.510866716628848 0 0 0
447 3 447 107.3844411513867 66.84252843148168 13.505744040180366 0 0 0
187 2 187 97.29059956250266 94.60621793500152 1.8666822025817706 0 0 0
190 2 190 92.60802903533052 95.9664195964178 -0.3807744940631873 0 0 0
191 2 191 94.28391623875197 99.47996816303514 -0.33743973952834855 0 0 0
196 2 196 84.80484366444699 98.93530415097965 0.9147205537200632 0 0 0
197 2 197 86.73556617734916 96.32528243537124 3.0798601077822423 0 0 0
198 2 198 86.90651084815036 97.26105202499257 6.836101358217445 0 0 0
200 2 200 90.72752117627915 99.26913554030541 9.669379280986417 0 0 0
201 2 201 91.59461051953897 99.23387017142825 5.930262718743428 0 0 0
252 2 252 96.85168103107024 99.4786466629908 15.827708487997006 0 0 0
253 2 253 95.09584330621567 99.29086207547684 12.326580778843203 0 0 0
254 2 254 97.7662082576455 97.11200819566126 10.717274680941744 0 0 0
255 2 255 97.80268279702544 94.75509356868643 13.56554142504036 0 0 0
256 2 256 93.9894045839821 94.38773588864025 13.705092272107805 0 0 0
257 2 257 94.04839361689673 93.57860608915047 9.975329834622574 0 0 0
258 2 258 96.87289502420145 90.92446573484246 10.56825257914358 0 0 0
259 2 259 95.66022183628854 89.48354251451019 13.82542391850989 0 0 0
260 2 260 92.02901106160068 90.55282026953782 14.534734711491758 0 0 0
261 2 261 91.11957262465305 93.51054716799811 16.897921012015694 0 0 0
293 2 293 95.38928713272556 83.3900520547823 12.321342833882149 0 0 0
296 2 296 96.05055432144509 84.20835682481646 5.29521725170201 0 0 0
297 2 297 96.56190541490155 83.47819489729496 1.5610237505071096 0 0 0
174 2 174 108.01400137056402 99.37851973432988 14.632663063208195 0 0 0
178 2 178 107.92407032762529 99.01779913924683 8.318705712053701 0 0 0
179 2 179 104.1148393747833 99.85188472794893 8.706635760637317 0 0 0
181 2 181 106.09760010593759 98.30218884010851 3.9706024025504254 0 0 0
182 2 182 103.51280437177724 95.93629887698131 5.613117541162815 0 0 0
183 2 183 100.661693462664 97.93467848200997 4.023707856145508 0 0 0
184 2 184 102.23631397564571 97.66407170486723 0.5274133571644314 0 0 0
185 2 185 103.32621895511181 93.98590684675696 1.0631974826260744 0 0 0
186 2 186 100.15190199645787 92.19448083867213 2.4660823706607857 0 0 0
251 2 251 100.32723670568956 99.77153118848813 14.185200618647903 0 0 0
291 2 291 100.67831687211557 83.81531071553975 16.2230881184814 0 0 0
292 2 292 98.97430564012234 84.65385365500026 12.90986411719498 0 0 0
316 3 316 108.71733855956543 92.39930987911383 1.146397630673052 0 0 0
317 3 317 111.86457345594262 90.67554326053104 2.380743644105026 0 0 0
318 3 318 115.17243599466892 92.65074149666741 2.194825135427417 0 0 0
414 3 414 103.39279337252158 82.38086352266185 -0.6339748624437008 0 0 0
417 3 417 106.71851874040566 85.0287492370049 2.248913298449899 0 0 0
418 3 418 104.0655482373981 86.81578015526863 4.285745124273227 0 0 0
419 3 419 104.71563651042379 84.95927198949683 7.61475474584849 0 0 0
420 3 420 108.51391947549581 84.91445305983962 7.795643287914175 0 0 0
421 3 421 108.61700911833154 88.48652600260134 6.419549708158249 0 0 0
422 3 422 106.69194505331824 89.57796892030385 9.614654888174561 0 0 0
423 3 423 109.31285556744754 87.78784942108449 11.724294268041117 0 0 0
424 3 424 112.24110321345093 89.55322888498146 9.822710793938441 0 0 0
425 3 425 110.47272607674081 93.01159456994674 10.19579493970327 0 0 0
426 3 426 109.80858716311086 92.29197846130533 13.914405212233428 0 0 0
427 3 427 112.35555821482444 93.6959383983349 16.57048498014333 0 0 0
319 3 319 117.66597230543361 92.37173781007915 -0.7225503351575729 0 0 0
320 3 320 120.02316305893412 90.02848527543699 1.2203331479052983 0 0 0
321 3 321 117.40009113192475 87.33617429700818 1.8465973659129793 0 0 0
322 3 322 118.08867045432255 85.11458488268633 -1.262138501830387 0 0 0
146 1 146 58.88562378256643 108.57640589787252 -0.18015541197869095 0 0 0
147 1 147 56.37983637424842 109.70562726587795 2.5106627155175985 0 0 0
148 1 148 58.440037335888526 108.48947047514865 5.547989706744218 0 0 0
149 1 149 60.98518140962145 110.57583252590982 7.681458283008931 0 0 0
38 1 38 76.66277577858854 115.70621103806155 12.583012289903383 0 0 0
39 1 39 77.36173902905134 115.94121031058033 16.357221862556756 0 0 0
41 1 41 78.64385316688977 111.08607218168498 14.503756470169273 0 0 0
48 1 48 78.50335728781471 102.63725507539435 10.962419879336222 0 0 0
49 1 49 78.76069968249037 103.37642678217932 7.132801785729236 0 0 0
105 1 105 79.62776836313199 115.2074403817734 4.3569065290871185 0 0 0
106 1 106 77.80466115392397 115.50769251616002 1.0095943990927194 0 0 0
107 1 107 77.80394632944241 111.74429746058762 0.47950254288872096 0 0 0
108 1 108 76.77287836187638 111.00920480308284 4.063769191140587 0 0 0
109 1 109 73.94709988641557 113.57144053181656 3.8921390184515414 0 0 0
110 1 110 72.54058989742812 112.84028912396721 0.37156178543503265 0 0 0
111 1 111 74.14217463162898 109.54108405392668 -0.8607422096163826 0 0 0
144 1 144 63.383320371591104 111.70722714917243 -0.5758893325963717 0 0 0
42 1 42 81.81191373494042 112.93758437991615 15.709282314333633 0 0 0
46 1 46 80.17202562496217 102.79099485783887 16.431844010489083 0 0 0
47 1 47 81.77724180294634 102.62533951030936 12.985749144383277 0 0 0
50 1 50 82.27958749702815 103.8878486858207 5.498078576146907 0 0 0
51 1 51 81.6307379762863 107.63590242610117 5.312581924599576 0 0 0
52 1 52 81.31372536543772 107.94633554930854 9.08719444370628 0 0 0
53 1 53 84.70438205114755 106.38051669572627 9.796539390073336 0 0 0
54 1 54 86.45716074366935 108.36402806663068 7.040340756138193 0 0 0
55 1 55 84.92040746011135 111.57592418570869 8.336868204100899 0 0 0
56 1 56 86.26351840938027 111.04186654646851 11.84294175805486 0 0 0
57 1 57 89.72587386661155 110.1968855556107 10.576495677576744 0 0 0
58 1 58 89.81766791454872 113.31105592661025 8.327177472384388 0 0 0
59 1 59 89.2241143861944 115.70668577541123 11.244987587841486 0 0 0
60 1 60 92.02462047520598 113.87619161894777 13.057866195252865 0 0 0
61 1 61 94.4123741797434 114.116116384248 9.997895287261434 0 0 0
100 1 100 87.95611593990859 115.06482191216969 1.380730796354231 0 0 0
101 1 101 85.66449893035941 116.2135600348714 4.419920121684661 0 0 0
103 1 103 82.9048600849056 114.87372093475602 0.014293363247408488 0 0 0
104 1 104 82.22415918627682 112.75005414269897 2.9816579244075556 0 0 0
199 2 199 87.08164930108462 100.38920512592914 8.883951380322495 0 0 0
202 2 202 89.96872135758761 102.68768501539944 5.568024711040235 0 0 0
203 2 203 91.88785614113564 104.108379967445 8.606902758075032 0 0 0
204 2 204 94.94613442226611 102.63753543315507 7.0055113980511505 0 0 0
205 2 205 94.2273872784616 104.53898046933975 3.8927272830251174 0 0 0
206 2 206 93.4539588568412 107.74624604333577 5.833253221362394 0 0 0
207 2 207 96.49754459573667 107.7631560269633 8.099094883958427 0 0 0
209 2 209 97.32909999179064 110.36101778527325 3.472193313384101 0 0 0
210 2 210 97.71412553955945 112.0152869155636 6.886116222588874 0 0 0
249 2 249 97.7949049835177 104.60956657195979 14.876237016730018 0 0 0
64 1 64 98.09211870105467 116.62506010899085 13.68513486632348 0 0 0
175 2 175 108.99707437202369 102.45201521608794 12.453967755933547 0 0 0
176 2 176 106.49837650370857 104.20320679984192 10.13327691877245 0 0 0
177 2 177 108.72469844101012 102.73302131456167 7.360229007304375 0 0 0
180 2 180 104.28732197875406 101.4075541046307 5.230699200792221 0 0 0
208 2 208 99.04672684419005 107.26229581391426 5.198682260273001 0 0 0
211 2 211 101.45956818981273 111.29543842759107 7.132138930010072 0 0 0
212 2 212 102.0245580198536 112.2830145197846 3.5657488134620645 0 0 0
213 2 213 100.70432138109807 115.80661094037775 3.8270210434569876 0 0 0
214 2 214 102.62671908315073 116.00391620196658 7.187113995797687 0 0 0
215 2 215 105.89199660488038 115.08442132731099 5.476317359208025 0 0 0
235 2 235 111.8520933095881 117.02588988906368 11.029341919278048 0 0 0
236 2 236 112.61753968711828 115.53052988676538 14.446815395578644 0 0 0
237 2 237 109.26941685035067 117.04491090149877 15.713448481117643 0 0 0
238 2 238 107.53840950998716 115.13855056148016 12.828516090453988 0 0 0
239 2 239 109.3071804755853 111.7610537845335 13.655259655519085 0 0 0
242 2 242 103.76897096545714 113.91488762429793 15.911772409655171 0 0 0
243 2 243 105.23587275548124 110.6084356151485 14.647379048857387 0 0 0
246 2 246 101.34278672626047 107.66210748192056 13.738091998756147 0 0 0
247 2 247 103.34038014543799 104.62718430686826 14.882417070343719 0 0 0
250 2 250 99.21598710453468 102.70313489832999 11.865785839763756 0 0 0
33 1 33 78.80944859392741 122.33368844968064 9.625032720117062 0 0 0
35 1 35 79.49122577169206 120.12771784037999 14.504243581205705 0 0 0
36 1 36 75.95827582704514 121.5394543193198 13.71868775202041 0 0 0
37 1 37 74.46207664026845 118.71448210590815 11.651971156899908 0 0 0
24 1 24 83.95317493167418 123.94522053871304 -1.1754464797174584 0 0 0
25 1 25 83.21963308946094 125.37185265104777 2.305512599652368 0 0 0
26 1 26 86.10684953153005 126.75164589308345 4.424618063374255 0 0 0
27 1 27 88.4277576824005 125.22608868232527 6.962866150555138 0 0 0
28 1 28 86.28239801231696 126.79607752858566 9.737716359957084 0 0 0
29 1 29 82.9704123998618 126.13297024980268 7.785636244854899 0 0 0
30 1 30 83.25707350911014 122.41106251316953 7.2850532714011695 0 0 0
31 1 31 84.27151058614575 122.11118160552951 10.996855382441955 0 0 0
32 1 32 81.15839911032403 124.25066795188671 11.918530734807442 0 0 0
34 1 34 80.20234782635062 118.9193901043718 10.938402257888836 0 0 0
62 1 62 94.14327058897248 118.00715052455634 10.047290146997787 0 0 0
63 1 63 94.50759986424762 117.8154734054663 13.82251262678775 0 0 0
66 1 66 97.41748477827124 122.17161716211655 12.456949634161878 0 0 0
90 1 90 94.68950355788374 126.4641900270427 4.215147566869313 0 0 0
91 1 91 95.54039477058465 126.41624261806992 0.42507867578541697 0 0 0
93 1 93 97.5787205908705 121.18269649103526 1.417571696278449 0 0 0
94 1 94 94.10503591032992 122.27215673770426 2.9261418394796994 0 0 0
95 1 95 92.31347594584052 122.30594868255662 -0.38264842896523144 0 0 0
96 1 96 92.58136717607476 118.48410714218724 -0.5241966895254335 0 0 0
97 1 97 91.38852960337535 118.47856714959184 3.136760176798907 0 0 0
98 1 98 88.37609868095518 120.67292946606273 2.1736980218022612 0 0 0
99 1 99 87.59022279117241 118.24103061657406 -0.7740257603033363 0 0 0
102 1 102 83.17344984413077 118.09455733126019 2.0605506671189096 0 0 0
65 1 65 98.58362553848922 119.0555283044347 10.714588634991115 0 0 0
67 1 67 99.24367172307068 121.0803220639544 15.666098973576869 0 0 0
68 1 68 102.53996228562875 121.1853698363642 13.443406176585823 0 0 0
69 1 69 101.39695243963868 124.42889466349433 11.639580786952301 0 0 0
70 1 70 100.86417466746211 126.09704402608327 15.036076346341623 0 0 0
71 1 71 104.23666636664436 124.83337562774375 16.359749992555642 0 0 0
72 1 72 106.1023051251437 125.85663939430592 13.217044970627427 0 0 0
73 1 73 104.66748503925504 129.482618731824 13.463198355898456 0 0 0
75 1 75 109.40478856089138 128.3883550433979 16.109966433624685 0 0 0
76 1 76 109.44595087084971 131.13109230958435 13.344587485972447 0 0 0
77 1 77 110.33832772650359 134.66606275057146 14.46401766566069 0 0 0
81 1 81 105.97747738772536 133.88270976923687 7.407740557416578 0 0 0
82 1 82 103.34250020240522 132.8437935638733 10.069206104112556 0 0 0
83 1 83 100.75644003075408 134.15294765482008 7.651102250370577 0 0 0
84 1 84 102.4737533355557 132.17739865867537 4.9437361237879065 0 0 0
85 1 85 102.38600792942766 128.86676966292512 6.880597608115304 0 0 0
86 1 86 98.59466862475978 129.1126139675673 7.7691465641473725 0 0 0
87 1 87 98.03260599116904 130.1715831663216 4.088052037177954 0 0 0
88 1 88 99.9649830138602 127.07090216028675 2.669517746540856 0 0 0
89 1 89 98.06068357116128 124.91814185291531 5.165743034024344 0 0 0
92 1 92 98.23231077190331 123.99991917421542 -1.0023846446457876 0 0 0
216 2 216 105.26095482389206 117.52042621518 2.5212528847118185 0 0 0
217 2 217 104.53044208146996 120.39502248103958 5.009370551152162 0 0 0
218 2 218 107.79529396512027 119.62021524558659 7.0339952885302255 0 0 0
219 2 219 109.69773421811183 119.38691035403681 3.794967389434397 0 0 0
220 2 220 108.31356759019882 122.59673962185292 2.3070011653953517 0 0 0
221 2 221 109.13638496706827 124.3809520349218 5.662266357673176 0 0 0
222 2 222 112.56208616951956 122.77830578853865 5.729892484204499 0 0 0
223 2 223 113.03103811326908 123.90785567664905 2.1321852498232996 0 0 0
224 2 224 112.21781967764555 127.52387592830132 3.0762064051995965 0 0 0
225 2 225 114.73198211242104 127.71479128427933 5.931456357513067 0 0 0
231 2 231 115.30051945695432 121.57005628292866 9.376924857971458 0 0 0
233 2 233 114.36203304266874 120.58729479338584 14.483259111862084 0 0 0
234 2 234 111.18489607605842 120.48438420150569 12.288290495482132 0 0 0
226 2 226 118.41527475724297 127.90466784635466 5.094687420141809 0 0 0
227 2 227 119.52170424109696 126.60552488337389 8.48625611876013 0 0 0
228 2 228 120.25449905626908 122.679043213167 8.542363433803859 0 0 0
229 2 229 119.67511966531528 122.57181860731788 12.383083693687494 0 0 0
230 2 230 116.27940154557069 124.32097147802243 12.083147875570605 0 0 0
232 2 232 116.60585187968778 118.84628978381905 11.8040077850429 0 0 0
78 1 78 108.80212589141973 136.41322996188543 11.39712440693641 0 0 0
79 1 79 105.05180126686088 137.52866806319494 11.612287203692613 0 0 0
80 1 80 104.79513304988103 137.56806243693268 7.78836856846883 0 0 0
434 3 434 111.38568559373068 79.45368018303361 16.379133619146614 0 0 0
159 2 159 87.02983690871504 99.84495743333457 21.01929822207447 0 0 0
262 2 262 90.16149784431067 91.44217843414073 20.049324153612424 0 0 0
263 2 263 93.32206771376153 89.26062696412185 19.800865031449497 0 0 0
264 2 264 95.52503781851972 92.47905169455696 19.71741673249061 0 0 0
265 2 265 93.90543720110452 94.24793402880991 22.67810367094593 0 0 0
266 2 266 94.11893296678662 91.11107931542145 24.9212351192906 0 0 0
267 2 267 97.81989139680842 91.07253950848107 23.94980397428101 0 0 0
269 2 269 96.08745810595244 94.07359406700496 28.277011942402574 0 0 0
172 2 172 107.91353240628422 98.60908007719914 21.21674532757111 0 0 0
268 2 268 98.0443853781341 94.71014169691627 24.994564392229808 0 0 0
270 2 270 98.45535631357126 91.18586507541121 29.23068389878258 0 0 0
271 2 271 101.47681425273667 93.47708335956753 28.25556912732683 0 0 0
272 2 272 100.07381793572833 96.26125879813303 30.47396222780071 0 0 0
273 2 273 99.96976062456444 94.35203267969877 33.83876014698851 0 0 0
274 2 274 103.71925004417177 93.44810151181362 33.20085140311508 0 0 0
275 2 275 104.75447483764935 97.15566643858455 32.726314002648444 0 0 0
283 2 283 108.53022421963276 87.13738488433427 34.745937002914246 0 0 0
284 2 284 111.93589398260085 86.90652417145431 32.81721454184151 0 0 0
285 2 285 110.45059070425773 87.23100232780165 29.244775786284098 0 0 0
286 2 286 107.85206758115135 89.99518568591223 28.516454245040734 0 0 0
287 2 287 104.78806648997346 88.9075163185871 26.560415714597827 0 0 0
288 2 288 105.74050560378979 88.45753751886124 22.830937625557432 0 0 0
289 2 289 103.32398557523524 89.0126077409575 19.884915509695485 0 0 0
290 2 290 100.75876300023864 86.20760391647906 19.264539591984352 0 0 0
428 3 428 114.93098480273892 91.00526737925759 17.896261974476342 0 0 0
429 3 429 113.95048360926187 91.19608386458516 21.771165246721026 0 0 0
430 3 430 110.27257121638665 90.45562486299849 20.670090500584916 0 0 0
431 3 431 110.77458295767872 87.50092250760633 18.19032957132873 0 0 0
432 3 432 111.30718097893859 83.95823862303585 19.505689111847104 0 0 0
433 3 433 114.03797653213971 81.79953461252084 17.942303699651283 0 0 0
40 1 40 76.88827136073111 112.39139344870182 17.615721410710822 0 0 0
43 1 43 81.48536223339309 111.20692716385939 19.20206777354018 0 0 0
44 1 44 80.5570529782702 107.72286754069297 17.888316553861543 0 0 0
45 1 45 81.68785173235204 104.49884925923165 19.657695732843536 0 0 0
150 2 150 83.09697555117549 116.81262561618625 20.68637069369229 0 0 0
151 2 151 86.65145627373258 117.03612875558184 19.41217647829086 0 0 0
152 2 152 87.61916509135601 113.4296870000394 18.28811986199104 0 0 0
153 2 153 89.11373173338778 110.64126166820373 20.477705590513946 0 0 0
154 2 154 90.87060236773081 108.48741058717782 17.82588401502378 0 0 0
155 2 155 90.18482142092549 104.85260106076353 18.940238091422824 0 0 0
156 2 156 86.77927182366338 105.36905764439871 20.49699572408096 0 0 0
157 2 157 84.95500458536004 103.78808829809171 17.506912634628694 0 0 0
158 2 158 87.51068176102008 101.03894088231321 17.406825151748787 0 0 0
160 2 160 90.22769512476671 101.41224279246224 22.506843457942775 0 0 0
161 2 161 91.9332135002035 104.27630210510279 24.37858921622269 0 0 0
162 2 162 94.80178224861913 106.7553113967163 23.847132835015337 0 0 0
163 2 163 95.43485778848547 106.29825338016532 27.56041840993376 0 0 0
164 2 164 96.6020516477107 102.63109140898365 26.96728743029817 0 0 0
165 2 165 98.17624002187652 103.3177167145953 23.56170825061317 0 0 0
166 2 166 100.39703477922933 106.2056158810944 24.752361696429983 0 0 0
167 2 167 101.57823996528815 104.28862615589392 27.951049243965304 0 0 0
168 2 168 103.57309486023206 101.88893671127113 25.7260040448544 0 0 0
169 2 169 107.36311642836745 102.59066840934798 24.9637382591917 0 0 0
170 2 170 108.38950868531434 104.06732943941404 21.596889027844572 0 0 0
171 2 171 110.7942314837848 101.06392175067737 20.82438960411871 0 0 0
173 2 173 106.38028893401692 100.11093918204462 17.984416211082976 0 0 0
240 2 240 108.8437666724564 112.16150362267598 17.508901274514535 0 0 0
241 2 241 106.12025582180064 114.53967450033576 18.879113847956813 0 0 0
244 2 244 104.95938524027176 108.57843814740043 17.78805085493426 0 0 0
245 2 245 101.15173397069987 108.99022475546087 17.36143713923118 0 0 0
248 2 248 100.48903056104056 103.90227344068117 17.417930551673585 0 0 0
74 1 74 105.83915245316257 129.50718001243646 17.143726468568275 0 0 0
276 2 276 102.55624179384523 98.07453049299313 35.75098277362746 0 0 0
277 2 277 104.45136238180673 95.30755030194155 37.746497447629274 0 0 0
278 2 278 107.81529389311476 96.774658500719 39.12929786787217 0 0 0
279 2 279 110.8700678083327 95.36593763537192 37.247618966013604 0 0 0
280 2 280 112.16659857007521 92.8260979282255 39.82545490673458 0 0 0
281 2 281 108.71252419786244 91.51094630227438 40.5122689909354 0 0 0
282 2 282 108.04689710347373 90.3812951851913 36.94843718125833 0 0 0

Velocities

578 0 0 0
579 0 0 0
580 0 0 0
581 0 0 0
582 0 0 0
576 0 0 0
577 0 0 0
589 0 0 0
590 0 0 0
591 0 0 0
592 0 0 0
593 0 0 0
594 0 0 0
595 0 0 0
596 0 0 0
561 0 0 0
564 0 0 0
565 0 0 0
566 0 0 0
567 0 0 0
568 0 0 0
569 0 0 0
570 0 0 0
571 0 0 0
572 0 0 0
583 0 0 0
584 0 0 0
585 0 0 0
586 0 0 0
587 0 0 0
588 0 0 0
464 0 0 0
465 0 0 0
466 0 0 0
467 0 0 0
468 0 0 0
573 0 0 0
574 0 0 0
575 0 0 0
470 0 0 0
471 0 0 0
472 0 0 0
469 0 0 0
494 0 0 0
342 0 0 0
343 0 0 0
344 0 0 0
345 0 0 0
355 0 0 0
453 0 0 0
454 0 0 0
455 0 0 0
456 0 0 0
457 0 0 0
458 0 0 0
462 0 0 0
496 0 0 0
497 0 0 0
498 0 0 0
499 0 0 0
500 0 0 0
501 0 0 0
546 0 0 0
547 0 0 0
550 0 0 0
551 0 0 0
553 0 0 0
554 0 0 0
555 0 0 0
556 0 0 0
557 0 0 0
558 0 0 0
559 0 0 0
560 0 0 0
562 0 0 0
563 0 0 0
358 0 0 0
449 0 0 0
450 0 0 0
451 0 0 0
452 0 0 0
459 0 0 0
460 0 0 0
461 0 0 0
463 0 0 0
487 0 0 0
299 0 0 0
473 0 0 0
474 0 0 0
475 0 0 0
476 0 0 0
477 0 0 0
478 0 0 0
479 0 0 0
480 0 0 0
481 0 0 0
482 0 0 0
483 0 0 0
484 0 0 0
485 0 0 0
486 0 0 0
488 0 0 0
489 0 0 0
490 0 0 0
502 0 0 0
503 0 0 0
504 0 0 0
505 0 0 0
506 0 0 0
507 0 0 0
508 0 0 0
509 0 0 0
510 0 0 0
544 0 0 0
545 0 0 0
548 0 0 0
549 0 0 0
552 0 0 0
359 0 0 0
362 0 0 0
365 0 0 0
366 0 0 0
368 0 0 0
369 0 0 0
370 0 0 0
512 0 0 0
513 0 0 0
514 0 0 0
516 0 0 0
531 0 0 0
532 0 0 0
533 0 0 0
534 0 0 0
535 0 0 0
536 0 0 0
537 0 0 0
538 0 0 0
539 0 0 0
540 0 0 0
541 0 0 0
542 0 0 0
543 0 0 0
371 0 0 0
372 0 0 0
373 0 0 0
374 0 0 0
517 0 0 0
519 0 0 0
520 0 0 0
521 0 0 0
523 0 0 0
524 0 0 0
525 0 0 0
526 0 0 0
527 0 0 0
528 0 0 0
529 0 0 0
530 0 0 0
375 0 0 0
376 0 0 0
128 0 0 0
131 0 0 0
132 0 0 0
129 0 0 0
307 0 0 0
339 0 0 0
340 0 0 0
346 0 0 0
347 0 0 0
348 0 0 0
349 0 0 0
350 0 0 0
351 0 0 0
352 0 0 0
353 0 0 0
354 0 0 0
399 0 0 0
400 0 0 0
401 0 0 0
402 0 0 0
403 0 0 0
404 0 0 0
405 0 0 0
406 0 0 0
407 0 0 0
409 0 0 0
410 0 0 0
495 0 0 0
326 0 0 0
327 0 0 0
328 0 0 0
329 0 0 0
330 0 0 0
331 0 0 0
332 0 0 0
333 0 0 0
334 0 0 0
335 0 0 0
336 0 0 0
337 0 0 0
338 0 0 0
341 0 0 0
356 0 0 0
357 0 0 0
448 0 0 0
188 0 0 0
189 0 0 0
193 0 0 0
195 0 0 0
491 0 0 0
493 0 0 0
300 0 0 0
301 0 0 0
302 0 0 0
303 0 0 0
304 0 0 0
305 0 0 0
306 0 0 0
308 0 0 0
309 0 0 0
310 0 0 0
311 0 0 0
312 0 0 0
313 0 0 0
314 0 0 0
315 0 0 0
394 0 0 0
397 0 0 0
398 0 0 0
492 0 0 0
323 0 0 0
324 0 0 0
325 0 0 0
360 0 0 0
361 0 0 0
363 0 0 0
364 0 0 0
367 0 0 0
382 0 0 0
383 0 0 0
384 0 0 0
385 0 0 0
386 0 0 0
387 0 0 0
388 0 0 0
389 0 0 0
390 0 0 0
391 0 0 0
392 0 0 0
393 0 0 0
395 0 0 0
396 0 0 0
511 0 0 0
515 0 0 0
380 0 0 0
381 0 0 0
145 0 0 0
112 0 0 0
113 0 0 0
114 0 0 0
115 0 0 0
116 0 0 0
117 0 0 0
118 0 0 0
119 0 0 0
120 0 0 0
140 0 0 0
141 0 0 0
142 0 0 0
143 0 0 0
3 0 0 0
4 0 0 0
5 0 0 0
6 0 0 0
7 0 0 0
8 0 0 0
9 0 0 0
10 0 0 0
11 0 0 0
12 0 0 0
13 0 0 0
14 0 0 0
15 0 0 0
16 0 0 0
192 0 0 0
194 0 0 0
1 0 0 0
2 0 0 0
518 0 0 0
522 0 0 0
377 0 0 0
378 0 0 0
379 0 0 0
121 0 0 0
122 0 0 0
124 0 0 0
125 0 0 0
130 0 0 0
133 0 0 0
134 0 0 0
135 0 0 0
136 0 0 0
137 0 0 0
138 0 0 0
139 0 0 0
17 0 0 0
18 0 0 0
19 0 0 0
20 0 0 0
21 0 0 0
22 0 0 0
23 0 0 0
123 0 0 0
126 0 0 0
127 0 0 0
444 0 0 0
445 0 0 0
446 0 0 0
294 0 0 0
295 0 0 0
298 0 0 0
408 0 0 0
411 0 0 0
412 0 0 0
413 0 0 0
415 0 0 0
416 0 0 0
435 0 0 0
436 0 0 0
437 0 0 0
438 0 0 0
439 0 0 0
440 0 0 0
441 0 0 0
442 0 0 0
443 0 0 0
447 0 0 0
187 0 0 0
190 0 0 0
191 0 0 0
196 0 0 0
197 0 0 0
198 0 0 0
200 0 0 0
201 0 0 0
252 0 0 0
253 0 0 0
254 0 0 0
255 0 0 0
256 0 0 0
257 0 0 0
258 0 0 0
259 0 0 0
260 0 0 0
261 0 0 0
293 0 0 0
296 0 0 0
297 0 0 0
174 0 0 0
178 0 0 0
179 0 0 0
181 0 0 0
182 0 0 0
183 0 0 0
184 0 0 0
185 0 0 0
186 0 0 0
251 0 0 0
291 0 0 0
292 0 0 0
316 0 0 0
317 0 0 0
318 0 0 0
414 0 0 0
417 0 0 0
418 0 0 0
419 0 0 0
420 0 0 0
421 0 0 0
422 0 0 0
423 0 0 0
424 0 0 0
425 0 0 0
426 0 0 0
427 0 0 0
319 0 0 0
320 0 0 0
321 0 0 0
322 0 0 0
146 0 0 0
147 0 0 0
148 0 0 0
149 0 0 0
38 0 0 0
39 0 0 0
41 0 0 0
48 0 0 0
49 0 0 0
105 0 0 0
106 0 0 0
107 0 0 0
108 0 0 0
109 0 0 0
110 0 0 0
111 0 0 0
144 0 0 0
42 0 0 0
46 0 0 0
47 0 0 0
50 0 0 0
51 0 0 0
52 0 0 0
53 0 0 0
54 0 0 0
55 0 0 0
56 0 0 0
57 0 0 0
58 0 0 0
59 0 0 0
60 0 0 0
61 0 0 0
100 0 0 0
101 0 0 0
103 0 0 0
104 0 0 0
199 0 0 0
202 0 0 0
203 0 0 0
204 0 0 0
205 0 0 0
206 0 0 0
207 0 0 0
209 0 0 0
210 0 0 0
249 0 0 0
64 0 0 0
175 0 0 0
176 0 0 0
177 0 0 0
180 0 0 0
208 0 0 0
211 0 0 0
212 0 0 0
213 0 0 0
214 0 0 0
215 0 0 0
235 0 0 0
236 0 0 0
237 0 0 0
238 0 0 0
239 0 0 0
242 0 0 0
243 0 0 0
246 0 0 0
247 0 0 0
250 0 0 0
33 0 0 0
35 0 0 0
36 0 0 0
37 0 0 0
24 0 0 0
25 0 0 0
26 0 0 0
27 0 0 0
28 0 0 0
29 0 0 0
30 0 0 0
31 0 0 0
32 0 0 0
34 0 0 0
62 0 0 0
63 0 0 0
66 0 0 0
90 0 0 0
91 0 0 0
93 0 0 0
94 0 0 0
95 0 0 0
96 0 0 0
97 0 0 0
98 0 0 0
99 0 0 0
102 0 0 0
65 0 0 0
67 0 0 0
68 0 0 0
69 0 0 0
70 0 0 0
71 0 0 0
72 0 0 0
73 0 0 0
75 0 0 0
76 0 0 0
77 0 0 0
81 0 0 0
82 0 0 0
83 0 0 0
84 0 0 0
85 0 0 0
86 0 0 0
87 0 0 0
88 0 0 0
89 0 0 0
92 0 0 0
216 0 0 0
217 0 0 0
218 0 0 0
219 0 0 0
220 0 0 0
221 0 0 0
222 0 0 0
223 0 0 0
224 0 0 0
225 0 0 0
231 0 0 0
233 0 0 0
234 0 0 0
226 0 0 0
227 0 0 0
228 0 0 0
229 0 0 0
230 0 0 0
232 0 0 0
78 0 0 0
79 0 0 0
80 0 0 0
434 0 0 0
159 0 0 0
262 0 0 0
263 0 0 0
264 0 0 0
265 0 0 0
266 0 0 0
267 0 0 0
269 0 0 0
172 0 0 0
268 0 0 0
270 0 0 0
271 0 0 0
272 0 0 0
273 0 0 0
274 0 0 0
275 0 0 0
283 0 0 0
284 0 0 0
285 0 0 0
286 0 0 0
287 0 0 0
288 0 0 0
289 0 0 0
290 0 0 0
428 0 0 0
429 0 0 0
430 0 0 0
431 0 0 0
432 0 0 0
433 0 0 0
40 0 0 0
43 0 0 0
44 0 0 0
45 0 0 0
150 0 0 0
151 0 0 0
152 0 0 0
153 0 0 0
154 0 0 0
155 0 0 0
156 0 0 0
157 0 0 0
158 0 0 0
160 0 0 0
161 0 0 0
162 0 0 0
163 0 0 0
164 0 0 0
165 0 0 0
166 0 0 0
167 0 0 0
168 0 0 0
169 0 0 0
170 0 0 0
171 0 0 0
173 0 0 0
240 0 0 0
241 0 0 0
244 0 0 0
245 0 0 0
248 0 0 0
74 0 0 0
276 0 0 0
277 0 0 0
278 0 0 0
279 0 0 0
280 0 0 0
281 0 0 0
282 0 0 0

Bonds

1 1106 578 579
2 1107 578 580
3 1102 579 581
4 1108 579 580
5 1103 580 581
6 1123 580 582
7 1104 581 582
8 1105 581 583
9 976 582 583
10 1121 582 584
11 1109 576 578
12 1111 576 579
13 1112 576 580
14 1116 576 577
15 1110 577 578
16 632 577 579
17 711 577 580
18 1126 589 596
19 1199 589 593
20 1205 589 590
21 1211 589 591
22 1200 590 593
23 1210 590 592
24 1212 590 591
25 1202 591 593
26 1230 591 592
27 1158 592 594
28 1201 592 593
29 885 593 595
30 1157 593 594
31 614 594 596
32 1153 594 595
33 1125 595 596
34 1168 561 564
35 1171 561 565
36 1248 561 562
37 1249 561 563
38 1159 564 565
39 572 564 566
40 1160 564 567
41 1161 564 568
42 1129 565 585
43 1162 565 566
44 1163 565 567
45 1164 565 568
46 1165 565 569
47 1166 565 587
48 1174 566 567
49 1175 566 568
50 1176 566 569
51 1177 566 570
52 1142 567 571
53 1178 567 568
54 1179 567 569
55 1180 567 570
56 1130 568 585
57 1143 568 571
58 1146 568 572
59 1181 568 569
60 1182 568 570
61 1131 569 585
62 1144 569 571
63 1147 569 572
64 1149 569 573
65 1183 569 570
66 1145 570 571
67 1148 570 572
68 1150 570 573
69 1152 570 574
70 1133 571 572
71 1134 571 573
72 1136 571 574
73 1137 571 575
74 1113 572 580
75 1135 572 573
76 1138 572 574
77 1139 572 575
78 1122 583 584
79 1124 583 585
80 1127 584 585
81 1154 584 586
82 1128 585 586
83 1132 585 587
84 1155 586 587
85 1156 586 588
86 1206 587 588
87 1207 587 589
88 1203 588 589
89 1204 588 590
90 1196 464 465
91 1221 464 466
92 1222 464 468
93 1184 465 570
94 1193 465 466
95 1194 465 467
96 1187 466 566
97 1188 466 569
98 1189 466 570
99 1213 466 470
100 1218 466 467
101 1219 466 468
102 1214 467 470
103 1140 467 468
104 853 467 469
105 1215 468 470
106 1220 468 469
107 917 468 471
108 1120 573 576
109 1140 573 574
110 1141 573 575
111 1117 574 576
112 1151 574 575
113 1114 575 579
114 1115 575 580
115 1118 575 576
116 1119 575 577
117 876 470 471
118 1217 470 472
119 1226 471 472
120 1227 471 473
121 1228 471 545
122 1229 471 546
123 1318 472 477
124 1331 472 473
125 1332 472 474
126 1333 472 545
127 1367 472 476
128 1216 469 470
129 1225 469 471
130 1531 494 496
131 1564 494 495
132 1565 494 499
133 1567 494 500
134 1514 342 343
135 1164 342 344
136 1518 342 455
137 1390 343 457
138 1412 343 454
139 1515 343 344
140 1519 343 455
141 1541 343 345
142 1520 344 455
143 1524 344 346
144 1542 344 345
145 1395 345 456
146 1535 345 351
147 1536 345 455
148 1539 345 347
149 1543 345 346
150 1588 355 358
151 1589 355 504
152 1592 355 356
153 1593 355 359
154 1594 355 357
155 1266 453 460
156 1386 453 457
157 1392 453 456
158 1400 453 454
159 1401 453 458
160 1402 453 459
161 1409 453 455
162 1387 454 457
163 1393 454 456
164 1403 454 458
165 1404 454 459
166 1410 454 455
167 1391 455 457
168 1396 455 456
169 1394 456 458
170 1397 456 457
171 1388 457 458
172 1389 457 459
173 1261 458 462
174 1267 458 460
175 1405 458 459
176 1185 462 566
177 1186 462 567
178 1197 462 465
179 1223 462 466
180 1254 462 463
181 1257 462 464
182 292 496 498
183 1530 496 497
184 1533 496 499
185 1534 496 500
186 1434 497 498
187 1537 497 500
188 1538 497 501
189 1578 497 499
190 1295 498 554
191 1415 498 555
192 1418 498 502
193 1419 498 551
194 1424 498 500
195 1425 498 501
196 1432 498 499
197 1433 499 502
198 1569 499 500
199 1570 499 501
200 1574 499 503
201 1426 500 502
202 1373 500 501
203 1580 500 503
204 1582 500 504
205 1427 501 502
206 1428 501 551
207 1581 501 503
208 1583 501 504
209 1584 501 505
210 1286 546 549
211 1287 546 550
212 1306 546 547
213 1310 546 548
214 1299 547 549
215 1300 547 550
216 1422 547 551
217 1440 547 548
218 1283 550 553
219 1284 550 554
220 1291 550 551
221 1292 550 552
222 1293 551 553
223 1296 551 554
224 1416 551 555
225 1421 551 552
226 1238 553 558
227 1252 553 562
228 1271 553 556
229 1273 553 557
230 1285 553 554
231 1301 553 555
232 1239 554 558
233 1251 554 559
234 1253 554 562
235 1272 554 556
236 1274 554 557
237 1302 554 555
238 1240 555 558
239 1275 555 556
240 1276 555 557
241 1208 556 590
242 1236 556 558
243 1270 556 557
244 1209 557 590
245 1231 557 591
246 1237 557 558
247 1278 557 559
248 1279 557 561
249 1280 557 562
250 1232 558 559
251 1233 558 560
252 1234 558 561
253 1235 558 562
254 1241 559 560
255 1242 559 561
256 1243 559 562
257 1244 559 563
258 1167 560 564
259 1245 560 561
260 1246 560 562
261 1247 560 563
262 1169 562 564
263 1172 562 565
264 1190 562 566
265 1250 562 563
266 1170 563 564
267 1173 563 565
268 1191 563 566
269 1192 563 567
270 1561 358 449
271 1595 358 361
272 1596 358 359
273 1597 358 362
274 1599 358 360
275 1413 449 451
276 1560 449 450
277 1411 450 452
278 1414 450 451
279 1406 451 452
280 1407 451 453
281 1408 451 454
282 1398 452 453
283 1399 452 454
284 821 459 462
285 1262 459 463
286 1268 459 460
287 1269 459 461
288 1255 460 462
289 1258 460 463
290 1263 460 461
291 1264 460 464
292 1195 461 465
293 1256 461 462
294 1259 461 463
295 1265 461 464
296 1198 463 465
297 1224 463 466
298 486 463 464
299 1260 463 546
300 1605 487 488
301 1606 487 489
302 1607 487 491
303 1608 487 493
304 1615 487 490
305 855 299 490
306 160 299 300
307 1682 299 301
308 1319 473 477
309 971 473 474
310 1334 473 545
311 1337 473 475
312 1368 473 476
313 1320 474 477
314 1335 474 545
315 1338 474 475
316 1339 474 544
317 1341 474 541
318 1344 474 478
319 1369 474 476
320 1327 475 477
321 1363 475 476
322 1364 475 479
323 1372 475 478
324 1321 476 477
325 1323 476 480
326 1362 476 479
327 1365 476 478
328 1288 477 549
329 1317 477 480
330 1322 477 479
331 1325 477 481
332 1328 477 548
333 876 477 478
334 1329 478 480
335 1366 478 479
336 1455 478 481
337 1464 478 482
338 1324 479 480
339 1356 479 483
340 1370 479 482
341 1371 479 481
342 1311 480 484
343 1326 480 481
344 1330 480 482
345 1358 480 483
346 1315 481 484
347 1361 481 483
348 1423 481 552
349 1444 481 485
350 1445 481 486
351 1465 481 482
352 1316 482 484
353 1357 482 483
354 1446 482 485
355 1447 482 486
356 1466 482 489
357 1312 483 484
358 1359 483 485
359 1360 483 486
360 1313 484 485
361 1314 484 486
362 1443 485 486
363 1448 485 487
364 1449 485 488
365 1450 485 489
366 1451 486 487
367 1452 486 488
368 1453 486 489
369 1454 486 490
370 1571 488 494
371 1573 488 499
372 1609 488 489
373 1610 488 491
374 1611 488 493
375 1616 488 490
376 1619 488 492
377 1612 489 491
378 1614 489 503
379 1617 489 490
380 1618 490 491
381 1684 490 492
382 1420 502 551
383 1429 502 548
384 88 502 503
385 1435 502 504
386 1436 502 505
387 1437 502 506
388 33 503 504
389 1626 503 505
390 1627 503 506
391 1004 503 507
392 160 504 505
393 1628 504 506
394 1629 504 507
395 1244 504 508
396 1458 505 548
397 1630 505 506
398 1631 505 507
399 1632 505 508
400 1633 505 509
401 1634 506 507
402 1635 506 508
403 436 506 509
404 1639 506 510
405 63 507 508
406 1636 507 509
407 1640 507 510
408 1643 507 511
409 1637 508 509
410 1641 508 510
411 1644 508 511
412 1645 508 512
413 1642 509 510
414 1646 509 511
415 1647 509 512
416 760 509 513
417 1686 510 511
418 1687 510 512
419 1688 510 513
420 1689 510 514
421 1309 544 546
422 519 544 545
423 1439 544 547
424 1456 544 548
425 1298 545 549
426 1305 545 546
427 1340 545 548
428 1343 545 547
429 1303 548 549
430 1304 548 550
431 1430 548 551
432 1431 548 552
433 1281 549 550
434 1282 549 553
435 1289 549 551
436 1290 549 552
437 1277 552 556
438 1294 552 553
439 1297 552 554
440 1417 552 555
441 1638 359 508
442 1648 359 362
443 1649 359 363
444 1041 359 360
445 1660 359 361
446 1650 362 363
447 1651 362 364
448 1652 362 365
449 1653 362 366
450 1666 365 366
451 1668 365 368
452 1671 365 367
453 1673 365 369
454 1669 366 368
455 1672 366 367
456 1674 366 369
457 1675 366 370
458 1677 368 369
459 1678 368 370
460 1679 368 371
461 1307 368 372
462 1680 368 384
463 1490 369 373
464 1719 369 370
465 1720 369 371
466 1721 369 372
467 1491 370 373
468 1722 370 371
469 1723 370 372
470 1724 370 374
471 900 512 513
472 1693 512 514
473 1694 512 515
474 1695 512 516
475 1473 513 533
476 1696 513 514
477 1697 513 515
478 1698 513 516
479 1702 513 517
480 1699 514 515
481 1700 514 516
482 1703 514 517
483 1704 514 518
484 1474 516 533
485 1489 516 532
486 1707 516 517
487 1708 516 518
488 1710 516 519
489 1711 516 520
490 1476 531 533
491 1483 531 532
492 1485 531 534
493 1486 531 535
494 1468 532 533
495 1470 532 536
496 1479 532 534
497 1480 532 535
498 1374 533 537
499 1467 533 536
500 1459 533 534
501 1469 533 535
502 1377 534 537
503 1379 534 538
504 1471 534 536
505 1481 534 535
506 1352 535 539
507 1378 535 537
508 1380 535 538
509 1463 535 540
510 1472 535 536
511 1355 536 539
512 1375 536 537
513 1376 536 538
514 1461 536 540
515 1462 536 541
516 1373 537 538
517 1381 537 539
518 1382 537 540
519 1383 537 541
520 1347 538 542
521 698 538 539
522 1384 538 540
523 1385 538 541
524 1346 539 542
525 1353 539 540
526 1354 539 541
527 1348 540 542
528 1441 540 543
529 1460 540 541
530 1342 541 545
531 1349 541 542
532 1442 541 543
533 1457 541 544
534 1307 542 546
535 1336 542 545
536 1350 542 544
537 1351 542 543
538 1308 543 546
539 1345 543 545
540 1438 543 547
541 1459 543 544
542 1492 371 373
543 706 371 372
544 1725 371 374
545 1727 371 380
546 1728 371 381
547 1493 372 373
548 1726 372 374
549 1494 373 374
550 1495 373 375
551 1508 374 526
552 1748 374 376
553 1749 374 377
554 1751 374 375
555 1477 517 533
556 1729 517 518
557 1730 517 521
558 1732 517 519
559 1733 517 520
560 1487 519 532
561 1737 519 521
562 1740 519 520
563 1198 519 522
564 1741 519 523
565 1478 520 533
566 1488 520 532
567 1504 520 529
568 1505 520 530
569 1738 520 521
570 1742 520 522
571 1743 520 523
572 708 521 522
573 1739 521 523
574 1511 523 526
575 1746 523 524
576 1747 523 525
577 1512 524 526
578 1759 524 525
579 1510 525 526
580 1513 525 527
581 1502 526 528
582 1503 526 529
583 1507 526 527
584 895 527 528
585 1506 527 529
586 1496 528 529
587 1497 528 530
588 1498 528 531
589 1499 529 530
590 1500 529 531
591 1475 530 533
592 1482 530 532
593 1484 530 534
594 1501 530 531
595 1752 375 376
596 1753 375 377
597 1509 376 526
598 1750 376 377
599 596 376 525
600 1756 376 378
601 17 128 132
602 19 128 133
603 35 128 129
604 36 128 130
605 21 131 132
606 22 131 133
607 8 132 134
608 14 132 133
609 18 129 132
610 20 129 133
611 37 129 130
612 43 129 131
613 1802 307 309
614 1232 307 308
615 1521 339 342
616 1528 339 341
617 1760 339 346
618 1769 339 340
619 1523 340 342
620 1529 340 341
621 1548 340 354
622 1790 340 350
623 1761 346 347
624 1762 346 348
625 1763 346 350
626 1556 347 351
627 1779 347 348
628 1780 347 349
629 1782 347 350
630 1540 348 497
631 1557 348 351
632 1579 348 495
633 1587 348 500
634 1781 348 349
635 1783 348 350
636 1786 348 352
637 1558 349 351
638 1784 349 350
639 1785 349 406
640 1787 349 352
641 1788 349 353
642 1789 349 402
643 1547 350 351
644 1549 350 354
645 1791 350 352
646 1792 350 353
647 1544 351 354
648 1546 351 355
649 1551 351 352
650 1552 351 353
651 1586 351 501
652 1553 352 354
653 1585 352 501
654 1590 352 355
655 749 352 504
656 201 352 353
657 1803 352 356
658 1554 353 354
659 1591 353 355
660 1804 353 356
661 1805 353 357
662 1806 353 399
663 1807 353 402
664 1545 354 450
665 372 354 355
666 1550 354 358
667 1555 354 356
668 1559 354 357
669 1895 399 403
670 1927 399 400
671 1928 399 401
672 1929 399 402
673 773 400 403
674 387 400 401
675 1930 400 402
676 1931 400 404
677 1896 401 403
678 1917 401 405
679 1784 401 402
680 1932 401 404
681 1887 402 406
682 1897 402 403
683 1918 402 405
684 1300 402 404
685 1880 403 406
686 1893 403 407
687 1898 403 404
688 1924 403 405
689 1888 404 406
690 1889 404 409
691 1899 404 407
692 1919 404 405
693 1942 404 413
694 1944 404 408
695 1883 405 406
696 1884 405 409
697 1916 405 410
698 1920 405 413
699 1925 405 407
700 507 405 408
701 1879 406 409
702 1881 406 407
703 1885 406 408
704 1882 407 409
705 1686 407 408
706 237 409 410
707 1890 409 412
708 1891 409 413
709 1892 409 411
710 1921 410 412
711 1922 410 413
712 1923 410 414
713 891 410 411
714 1532 495 496
715 1566 495 499
716 1568 495 500
717 1577 495 497
718 1913 326 330
719 1949 326 327
720 1950 326 328
721 1951 326 329
722 1906 327 330
723 1909 327 331
724 1947 327 328
725 673 327 329
726 1907 328 330
727 1910 328 331
728 1911 328 332
729 1933 328 399
730 1934 328 400
731 1948 328 329
732 1799 329 333
733 1908 329 330
734 1023 329 331
735 1912 329 332
736 1795 330 333
737 1900 330 331
738 1901 330 332
739 1902 330 334
740 1796 331 333
741 1877 331 335
742 1903 331 332
743 1904 331 334
744 1772 332 336
745 1777 332 337
746 1797 332 333
747 386 332 335
748 1894 332 403
749 1905 332 334
750 1770 333 336
751 1775 333 337
752 1798 333 334
753 1800 333 335
754 1773 334 336
755 1778 334 337
756 1878 334 335
757 1771 335 336
758 1776 335 337
759 1764 336 339
760 1765 336 337
761 1766 336 338
762 173 336 340
763 1526 337 341
764 1767 337 339
765 1774 337 338
766 1793 337 340
767 1522 338 342
768 1527 338 341
769 1768 338 339
770 1794 338 340
771 1516 341 342
772 1517 341 343
773 1525 341 450
774 1600 356 358
775 1663 356 359
776 844 356 357
777 1808 356 360
778 1598 357 358
779 1603 357 361
780 1393 357 359
781 1809 357 360
782 1562 448 449
783 1563 448 450
784 144 188 190
785 160 188 189
786 161 188 191
787 162 188 192
788 145 189 190
789 148 189 193
790 163 189 191
791 164 189 192
792 137 193 195
793 143 193 194
794 157 193 196
795 139 195 196
796 141 195 197
797 1613 491 493
798 1620 491 492
799 994 493 494
800 1572 493 495
801 1622 300 489
802 1623 300 491
803 1681 300 490
804 1650 300 301
805 1685 300 302
806 1624 301 489
807 1625 301 491
808 1683 301 490
809 1813 301 492
810 1819 301 303
811 1836 301 302
812 933 302 303
813 1820 302 304
814 1821 302 305
815 1837 302 310
816 1816 303 304
817 1817 303 305
818 1801 304 307
819 1811 304 306
820 1818 304 305
821 1822 304 309
822 1823 304 310
823 1826 304 311
824 1827 304 308
825 617 305 307
826 708 305 306
827 1812 305 492
828 1824 305 309
829 1825 305 310
830 1828 305 308
831 1576 306 495
832 1810 306 492
833 1814 306 307
834 1815 306 308
835 1914 308 309
836 1915 308 310
837 1960 309 310
838 1963 309 311
839 1968 309 313
840 1961 310 314
841 1964 310 311
842 1965 310 312
843 1969 310 313
844 1966 311 314
845 1178 311 312
846 1997 311 315
847 1999 311 313
848 1967 312 314
849 1996 312 316
850 1998 312 315
851 1886 312 313
852 1970 313 314
853 2034 313 417
854 2035 313 316
855 2036 313 418
856 2041 313 315
857 1962 314 397
858 1971 314 417
859 1972 314 317
860 1973 314 316
861 1974 314 315
862 2043 315 317
863 1784 315 316
864 2054 315 318
865 2055 315 319
866 27 394 395
867 1975 394 397
868 1976 394 398
869 1980 394 396
870 1935 397 399
871 1937 397 400
872 1938 397 401
873 1977 397 398
874 1936 398 399
875 1924 398 400
876 1939 398 401
877 1940 398 402
878 1575 492 494
879 1621 492 493
880 1957 323 325
881 1958 323 327
882 1959 323 328
883 333 323 324
884 1995 323 396
885 1952 324 325
886 1955 324 327
887 1956 324 328
888 1985 324 396
889 1994 324 326
890 1834 325 395
891 1945 325 327
892 1946 325 328
893 1673 325 329
894 1118 325 326
895 1953 325 392
896 1954 325 396
897 1604 360 361
898 1658 360 362
899 1659 360 363
900 1676 360 364
901 1601 361 364
902 1602 361 365
903 1661 361 362
904 1662 361 363
905 1654 363 364
906 1655 363 365
907 1656 363 366
908 1657 363 512
909 386 363 367
910 1664 364 365
911 1665 364 366
912 1667 364 368
913 1670 364 367
914 1712 367 369
915 1713 367 370
916 1714 367 371
917 1715 367 383
918 1716 367 384
919 1717 367 387
920 1718 367 368
921 1857 382 383
922 1859 382 384
923 1861 382 385
924 1862 382 386
925 1846 383 384
926 1847 383 385
927 1848 383 386
928 1849 383 387
929 1850 384 385
930 1851 384 386
931 1852 384 387
932 1867 384 388
933 1853 385 386
934 1854 385 387
935 1863 385 389
936 1868 385 388
937 1838 386 391
938 1855 386 387
939 1864 386 389
940 1865 386 390
941 1869 386 388
942 1839 387 391
943 1148 387 389
944 1866 387 390
945 1020 387 388
946 1870 387 392
947 1844 388 391
948 1989 388 392
949 973 388 389
950 2001 388 390
951 1841 389 391
952 1991 389 392
953 1992 389 393
954 2000 389 390
955 1840 390 391
956 318 390 392
957 795 390 393
958 1829 391 395
959 1842 391 392
960 1843 391 393
961 1845 391 394
962 1830 392 395
963 1978 392 394
964 1986 392 393
965 1987 392 396
966 1831 393 395
967 1979 393 394
968 1981 393 397
969 1988 393 396
970 1832 395 396
971 1833 395 397
972 114 395 398
973 1835 395 399
974 1941 396 399
975 1402 396 400
976 1982 396 397
977 1983 396 398
978 757 511 512
979 1690 511 513
980 1691 511 514
981 1692 511 515
982 1701 515 516
983 1705 515 517
984 1706 515 518
985 1709 515 519
986 1543 380 381
987 1871 380 382
988 1856 381 383
989 1858 381 384
990 1860 381 385
991 1872 381 382
992 213 145 147
993 217 145 146
994 58 112 116
995 178 112 113
996 180 112 114
997 181 112 115
998 51 113 117
999 59 113 116
1000 183 113 114
1001 184 113 115
1002 48 114 117
1003 56 114 116
1004 105 114 118
1005 218 114 141
1006 224 114 115
1007 225 114 140
1008 49 115 117
1009 57 115 116
1010 106 115 118
1011 118 115 119
1012 226 115 140
1013 44 116 117
1014 52 116 120
1015 53 116 119
1016 101 116 118
1017 45 117 120
1018 46 117 118
1019 47 117 121
1020 50 117 119
1021 82 118 121
1022 83 118 122
1023 84 118 138
1024 88 118 119
1025 95 118 139
1026 96 118 140
1027 102 118 120
1028 54 119 120
1029 89 119 121
1030 91 119 122
1031 109 119 123
1032 7 120 124
1033 55 120 123
1034 103 120 121
1035 104 120 122
1036 221 140 141
1037 242 140 142
1038 212 141 143
1039 219 141 142
1040 214 142 143
1041 215 142 144
1042 209 143 144
1043 210 143 145
1044 166 3 191
1045 167 3 192
1046 203 3 4
1047 206 3 205
1048 207 3 209
1049 239 3 5
1050 168 4 192
1051 197 4 7
1052 240 4 5
1053 241 4 6
1054 71 5 7
1055 237 5 6
1056 75 6 12
1057 76 6 13
1058 194 6 9
1059 195 6 10
1060 198 6 7
1061 199 6 8
1062 236 6 11
1063 238 6 100
1064 80 7 12
1065 153 7 194
1066 188 7 9
1067 190 7 10
1068 196 7 8
1069 59 7 11
1070 140 8 195
1071 152 8 193
1072 154 8 194
1073 189 8 9
1074 191 8 10
1075 200 8 196
1076 187 9 10
1077 192 9 11
1078 81 10 12
1079 193 10 11
1080 77 11 12
1081 78 11 13
1082 79 11 15
1083 125 11 16
1084 60 12 13
1085 61 12 14
1086 62 12 15
1087 66 12 16
1088 63 13 14
1089 64 13 15
1090 67 13 16
1091 68 13 17
1092 65 14 15
1093 69 14 16
1094 70 14 17
1095 71 14 18
1096 72 15 16
1097 73 15 17
1098 74 15 18
1099 116 15 119
1100 110 16 19
1101 119 16 17
1102 120 16 18
1103 124 16 99
1104 150 192 193
1105 151 192 194
1106 138 194 195
1107 158 194 196
1108 204 1 2
1109 205 1 3
1110 208 1 184
1111 201 2 3
1112 202 2 4
1113 1731 518 521
1114 1734 518 519
1115 1735 518 520
1116 1736 518 522
1117 1744 522 523
1118 1745 522 524
1119 1754 377 525
1120 1755 377 379
1121 1757 377 378
1122 1758 377 380
1123 1875 378 380
1124 1876 378 379
1125 35 379 380
1126 1873 379 381
1127 1874 379 382
1128 5 121 124
1129 29 121 125
1130 85 121 122
1131 86 121 138
1132 90 121 123
1133 6 122 124
1134 30 122 125
1135 87 122 138
1136 92 122 123
1137 93 122 137
1138 97 122 139
1139 100 122 126
1140 1 124 127
1141 2 124 128
1142 4 124 126
1143 27 124 125
1144 13 125 133
1145 15 125 127
1146 16 125 128
1147 23 125 137
1148 26 125 126
1149 31 125 138
1150 24 130 132
1151 25 130 133
1152 42 130 131
1153 9 133 134
1154 28 133 135
1155 10 134 135
1156 11 134 136
1157 12 134 137
1158 126 135 136
1159 127 135 137
1160 128 136 137
1161 129 136 138
1162 94 137 138
1163 130 137 139
1164 98 138 139
1165 99 138 140
1166 220 139 141
1167 244 139 140
1168 111 17 19
1169 121 17 18
1170 122 17 20
1171 112 18 19
1172 113 18 123
1173 123 18 20
1174 107 19 119
1175 108 19 123
1176 115 19 20
1177 117 19 21
1178 131 20 21
1179 132 20 22
1180 133 20 23
1181 259 21 23
1182 261 21 24
1183 269 21 22
1184 260 22 23
1185 262 22 24
1186 258 23 24
1187 263 23 25
1188 3 123 124
1189 32 123 125
1190 41 123 127
1191 114 123 126
1192 38 126 127
1193 39 126 128
1194 40 126 129
1195 33 127 128
1196 34 127 129
1197 2063 444 445
1198 1752 445 446
1199 2070 445 447
1200 2106 446 447
1201 281 294 295
1202 283 294 296
1203 134 295 298
1204 277 295 296
1205 278 295 297
1206 1886 408 409
1207 1926 408 410
1208 2002 408 440
1209 2007 408 412
1210 2008 408 413
1211 2009 408 438
1212 2010 408 439
1213 2011 411 412
1214 2012 411 413
1215 318 411 414
1216 2013 411 415
1217 2014 412 413
1218 2015 412 414
1219 2016 412 415
1220 331 412 416
1221 2017 413 414
1222 2018 413 415
1223 2019 413 416
1224 2021 413 417
1225 728 415 416
1226 2023 415 417
1227 2028 415 418
1228 2029 415 419
1229 2024 416 417
1230 2025 416 436
1231 2026 416 437
1232 2030 416 418
1233 2019 416 419
1234 2031 416 420
1235 2080 435 436
1236 1786 435 437
1237 2076 436 437
1238 2081 436 438
1239 2074 437 438
1240 2075 437 439
1241 2073 438 439
1242 2006 439 440
1243 2071 439 442
1244 2072 439 441
1245 2003 440 442
1246 2004 440 443
1247 2005 440 444
1248 1153 440 441
1249 2064 441 442
1250 2065 441 443
1251 2066 441 444
1252 2067 441 445
1253 2058 442 443
1254 2059 442 444
1255 2060 442 445
1256 2068 442 446
1257 2069 442 447
1258 2061 443 444
1259 2062 443 445
1260 159 187 190
1261 174 187 188
1262 175 187 189
1263 176 187 191
1264 142 190 193
1265 146 190 191
1266 147 190 192
1267 155 190 197
1268 156 190 201
1269 149 191 193
1270 165 191 192
1271 171 191 205
1272 172 191 201
1273 296 196 197
1274 297 196 198
1275 299 197 198
1276 300 197 201
1277 303 197 199
1278 301 198 201
1279 302 198 202
1280 304 198 199
1281 305 198 200
1282 307 200 201
1283 355 200 202
1284 381 200 204
1285 601 200 253
1286 603 200 203
1287 604 200 256
1288 605 200 257
1289 264 201 202
1290 308 201 204
1291 309 201 205
1292 310 201 253
1293 311 201 203
1294 591 252 255
1295 592 252 256
1296 612 252 253
1297 613 252 254
1298 579 253 255
1299 581 253 256
1300 583 253 257
1301 606 253 254
1302 580 254 255
1303 582 254 256
1304 584 254 257
1305 585 254 258
1306 569 255 256
1307 570 255 257
1308 571 255 258
1309 572 255 259
1310 586 255 264
1311 593 255 260
1312 573 256 257
1313 574 256 258
1314 575 256 259
1315 587 256 264
1316 594 256 260
1317 595 256 261
1318 576 257 258
1319 577 257 259
1320 596 257 260
1321 563 258 292
1322 578 258 259
1323 597 258 260
1324 564 259 292
1325 565 259 293
1326 588 259 263
1327 589 259 264
1328 598 259 260
1329 599 259 261
1330 880 260 261
1331 881 260 262
1332 883 260 263
1333 884 260 264
1334 882 261 262
1335 885 261 263
1336 886 261 264
1337 647 261 265
1338 280 293 295
1339 282 293 296
1340 562 293 294
1341 135 296 298
1342 279 296 297
1343 136 297 298
1344 621 174 179
1345 628 174 178
1346 681 174 176
1347 684 174 175
1348 969 174 247
1349 326 178 180
1350 327 178 181
1351 328 178 182
1352 616 178 179
1353 322 179 180
1354 323 179 181
1355 324 179 182
1356 325 179 183
1357 608 179 254
1358 615 179 251
1359 667 179 250
1360 292 181 185
1361 316 181 182
1362 317 181 183
1363 318 181 184
1364 287 182 186
1365 293 182 185
1366 319 182 183
1367 320 182 184
1368 169 183 188
1369 288 183 186
1370 290 183 187
1371 294 183 185
1372 321 183 184
1373 170 184 188
1374 289 184 186
1375 291 184 187
1376 295 184 185
1377 177 185 188
1378 285 185 186
1379 286 185 187
1380 173 186 188
1381 284 186 187
1382 590 251 255
1383 607 251 253
1384 609 251 254
1385 624 251 252
1386 567 291 292
1387 568 291 293
1388 560 292 293
1389 561 292 294
1390 2051 316 318
1391 2052 316 317
1392 2053 316 421
1393 2042 317 321
1394 2044 317 318
1395 2045 317 319
1396 2046 317 421
1397 1085 318 319
1398 2056 318 320
1399 2057 318 321
1400 2020 414 415
1401 953 414 416
1402 2022 414 417
1403 2027 414 418
1404 2037 417 418
1405 2038 417 419
1406 2039 417 420
1407 2040 417 421
1408 2082 418 419
1409 2083 418 420
1410 2084 418 421
1411 2085 418 422
1412 2077 419 436
1413 2086 419 420
1414 2087 419 421
1415 2088 419 422
1416 2094 419 423
1417 2078 420 436
1418 412 420 421
1419 2089 420 422
1420 2091 420 424
1421 2095 420 423
1422 2100 420 435
1423 2090 421 422
1424 2092 421 424
1425 2096 421 423
1426 2098 421 425
1427 2093 422 424
1428 2097 422 423
1429 934 422 425
1430 2099 422 426
1431 221 423 424
1432 2105 423 425
1433 1981 423 431
1434 2111 423 426
1435 2101 424 425
1436 2102 424 426
1437 2103 425 427
1438 2104 425 426
1439 2112 426 431
1440 2120 426 427
1441 2121 426 428
1442 2122 426 430
1443 2113 427 431
1444 2117 427 428
1445 2123 427 429
1446 2124 427 430
1447 1993 319 393
1448 2049 319 320
1449 2050 319 321
1450 2047 320 321
1451 2048 320 322
1452 2032 321 323
1453 441 321 322
1454 1943 322 400
1455 1984 322 397
1456 113 322 324
1457 1990 322 396
1458 2033 322 323
1459 332 146 148
1460 333 146 147
1461 334 147 148
1462 382 147 149
1463 335 148 149
1464 688 38 39
1465 689 38 40
1466 691 38 41
1467 692 38 42
1468 973 39 40
1469 974 39 41
1470 975 39 42
1471 223 39 43
1472 980 39 150
1473 650 41 52
1474 934 41 44
1475 851 41 42
1476 982 41 43
1477 338 48 50
1478 633 48 49
1479 634 48 52
1480 339 49 50
1481 342 49 51
1482 635 49 52
1483 636 49 53
1484 395 105 106
1485 398 105 107
1486 400 105 108
1487 401 105 109
1488 227 106 111
1489 233 106 115
1490 383 106 107
1491 384 106 108
1492 385 106 109
1493 386 106 110
1494 185 107 112
1495 228 107 111
1496 234 107 115
1497 387 107 108
1498 388 107 109
1499 389 107 110
1500 229 108 111
1501 390 108 109
1502 391 108 110
1503 230 109 111
1504 392 109 110
1505 186 110 112
1506 231 110 111
1507 232 110 114
1508 235 110 115
1509 243 110 142
1510 179 111 112
1511 182 111 113
1512 222 111 114
1513 223 111 115
1514 211 144 145
1515 216 144 146
1516 721 42 56
1517 935 42 44
1518 983 42 43
1519 984 42 152
1520 986 42 150
1521 644 46 47
1522 646 46 48
1523 929 46 157
1524 629 47 48
1525 630 47 49
1526 631 47 52
1527 632 47 53
1528 645 47 157
1529 651 47 199
1530 298 50 196
1531 336 50 51
1532 340 50 52
1533 341 50 53
1534 345 50 54
1535 348 50 199
1536 337 51 104
1537 343 51 52
1538 344 51 53
1539 346 51 54
1540 347 51 55
1541 403 51 108
1542 637 52 53
1543 638 52 54
1544 640 52 55
1545 647 52 56
1546 639 53 54
1547 641 53 55
1548 648 53 56
1549 649 53 57
1550 652 53 199
1551 352 54 202
1552 374 54 206
1553 653 54 203
1554 655 54 56
1555 656 54 57
1556 657 54 58
1557 698 54 55
1558 415 55 104
1559 422 55 101
1560 694 55 56
1561 695 55 57
1562 696 55 58
1563 697 55 59
1564 699 56 57
1565 700 56 58
1566 701 56 59
1567 702 56 60
1568 714 56 152
1569 379 57 206
1570 658 57 203
1571 703 57 58
1572 704 57 59
1573 705 57 60
1574 709 57 61
1575 380 58 206
1576 421 58 101
1577 706 58 59
1578 707 58 60
1579 710 58 61
1580 716 58 62
1581 708 59 60
1582 711 59 61
1583 717 59 62
1584 718 59 63
1585 712 60 61
1586 713 60 64
1587 715 60 152
1588 719 60 62
1589 720 60 63
1590 722 60 154
1591 429 61 210
1592 662 61 207
1593 723 61 64
1594 724 61 62
1595 725 61 63
1596 726 61 65
1597 407 100 103
1598 409 100 104
1599 416 100 101
1600 454 100 102
1601 408 101 103
1602 410 101 104
1603 411 101 105
1604 119 101 102
1605 393 103 106
1606 396 103 107
1607 404 103 104
1608 405 103 105
1609 394 104 106
1610 397 104 107
1611 399 104 108
1612 406 104 105
1613 306 199 201
1614 354 199 202
1615 600 199 200
1616 602 199 203
1617 349 202 204
1618 350 202 205
1619 351 202 206
1620 353 202 203
1621 372 203 204
1622 373 203 205
1623 375 203 206
1624 654 203 207
1625 659 203 253
1626 356 204 205
1627 357 204 206
1628 358 204 208
1629 367 204 207
1630 368 204 250
1631 376 204 253
1632 377 204 254
1633 359 205 206
1634 360 205 208
1635 362 205 209
1636 369 205 207
1637 361 206 208
1638 363 206 209
1639 364 206 210
1640 237 206 207
1641 370 207 208
1642 433 207 209
1643 434 207 210
1644 660 207 250
1645 664 207 211
1646 424 209 210
1647 425 209 212
1648 426 209 213
1649 430 209 211
1650 427 210 212
1651 428 210 213
1652 431 210 211
1653 432 210 214
1654 614 249 253
1655 625 249 251
1656 663 249 250
1657 909 249 252
1658 729 64 65
1659 730 64 66
1660 731 64 68
1661 732 64 242
1662 733 64 67
1663 619 175 179
1664 626 175 178
1665 671 175 176
1666 682 175 177
1667 683 175 247
1668 329 176 180
1669 617 176 179
1670 670 176 246
1671 672 176 177
1672 646 176 247
1673 679 176 178
1674 330 177 180
1675 331 177 181
1676 620 177 179
1677 627 177 178
1678 312 180 181
1679 313 180 182
1680 314 180 183
1681 315 180 184
1682 365 208 209
1683 366 208 210
1684 371 208 212
1685 378 208 211
1686 443 211 212
1687 445 211 213
1688 447 211 215
1689 734 211 214
1690 435 212 213
1691 436 212 215
1692 438 212 216
1693 444 212 214
1694 437 213 215
1695 439 213 216
1696 440 213 217
1697 446 213 214
1698 448 214 215
1699 484 214 216
1700 485 214 217
1701 735 214 218
1702 441 215 216
1703 442 215 217
1704 449 215 219
1705 450 215 218
1706 738 235 238
1707 739 235 239
1708 811 235 237
1709 814 235 236
1710 740 236 238
1711 742 236 239
1712 999 236 240
1713 1001 236 237
1714 744 237 238
1715 745 237 239
1716 997 237 241
1717 998 237 242
1718 1002 237 240
1719 736 238 239
1720 741 238 240
1721 718 238 241
1722 746 238 242
1723 747 238 243
1724 743 239 240
1725 748 239 241
1726 749 239 242
1727 750 239 243
1728 751 239 244
1729 677 242 246
1730 963 242 244
1731 965 242 245
1732 993 242 243
1733 678 243 246
1734 964 243 244
1735 966 243 245
1736 967 243 247
1737 661 246 250
1738 675 246 247
1739 676 246 248
1740 680 246 249
1741 622 247 251
1742 665 247 250
1743 955 247 249
1744 815 247 248
1745 610 250 253
1746 611 250 254
1747 668 250 251
1748 669 250 252
1749 752 33 36
1750 754 33 37
1751 766 33 34
1752 775 33 35
1753 693 35 38
1754 757 35 36
1755 758 35 37
1756 979 35 39
1757 686 36 38
1758 675 36 37
1759 759 36 39
1760 687 37 38
1761 760 37 39
1762 264 24 25
1763 265 24 26
1764 266 24 99
1765 267 24 102
1766 268 24 98
1767 452 25 102
1768 506 25 26
1769 507 25 29
1770 508 25 27
1771 509 25 98
1772 510 25 30
1773 463 26 98
1774 511 26 27
1775 512 26 28
1776 513 26 29
1777 514 26 30
1778 466 27 98
1779 535 27 90
1780 776 27 30
1781 778 27 31
1782 831 27 29
1783 834 27 28
1784 777 28 30
1785 779 28 31
1786 136 28 29
1787 832 28 32
1788 767 29 30
1789 769 29 31
1790 771 29 33
1791 830 29 32
1792 423 30 101
1793 453 30 102
1794 761 30 31
1795 762 30 33
1796 763 30 34
1797 768 30 32
1798 764 31 33
1799 765 31 34
1800 770 31 32
1801 774 31 35
1802 756 32 36
1803 772 32 33
1804 773 32 34
1805 833 32 35
1806 690 34 38
1807 753 34 36
1808 755 34 37
1809 406 34 35
1810 780 34 39
1811 727 62 64
1812 781 62 63
1813 782 62 65
1814 783 62 66
1815 728 63 64
1816 784 63 65
1817 785 63 66
1818 789 63 67
1819 788 66 68
1820 791 66 67
1821 793 66 69
1822 795 66 70
1823 272 90 92
1824 464 90 95
1825 470 90 93
1826 473 90 94
1827 524 90 91
1828 273 91 92
1829 465 91 95
1830 471 91 93
1831 474 91 94
1832 251 93 96
1833 458 93 95
1834 460 93 97
1835 467 93 94
1836 475 93 213
1837 252 94 96
1838 459 94 95
1839 461 94 97
1840 462 94 98
1841 37 95 96
1842 248 95 99
1843 455 95 97
1844 456 95 98
1845 245 96 99
1846 246 96 97
1847 247 96 98
1848 254 96 100
1849 249 97 99
1850 417 97 100
1851 419 97 101
1852 457 97 98
1853 250 98 99
1854 418 98 100
1855 420 98 101
1856 451 98 102
1857 253 99 102
1858 255 99 100
1859 256 99 101
1860 257 99 103
1861 402 102 106
1862 412 102 103
1863 413 102 104
1864 414 102 105
1865 786 65 66
1866 787 65 68
1867 790 65 67
1868 792 65 69
1869 794 65 214
1870 800 67 68
1871 854 67 69
1872 1005 67 70
1873 1006 67 71
1874 796 68 69
1875 797 68 72
1876 798 68 70
1877 799 68 71
1878 534 69 89
1879 538 69 85
1880 835 69 86
1881 838 69 72
1882 839 69 73
1883 844 69 70
1884 845 69 71
1885 846 70 72
1886 849 70 73
1887 991 70 71
1888 1008 70 74
1889 847 71 72
1890 850 71 73
1891 521 71 74
1892 1009 71 75
1893 840 72 73
1894 841 72 76
1895 848 72 74
1896 852 72 75
1897 539 73 85
1898 842 73 76
1899 843 73 82
1900 851 73 74
1901 853 73 75
1902 856 75 76
1903 1011 75 77
1904 855 76 78
1905 857 76 77
1906 875 76 82
1907 874 77 79
1908 876 77 78
1909 540 81 85
1910 556 81 84
1911 867 81 82
1912 868 81 83
1913 541 82 85
1914 557 82 84
1915 836 82 86
1916 869 82 83
1917 536 83 87
1918 542 83 85
1919 558 83 84
1920 837 83 86
1921 532 84 87
1922 533 84 88
1923 537 84 85
1924 559 84 86
1925 525 85 87
1926 526 85 88
1927 527 85 89
1928 543 85 86
1929 528 86 87
1930 529 86 88
1931 530 86 89
1932 531 86 90
1933 515 87 88
1934 516 87 89
1935 517 87 90
1936 518 87 91
1937 270 88 92
1938 468 88 93
1939 519 88 89
1940 520 88 90
1941 521 88 91
1942 271 89 92
1943 469 89 93
1944 472 89 94
1945 522 89 90
1946 523 89 91
1947 274 92 93
1948 275 92 94
1949 276 92 95
1950 476 216 217
1951 477 216 219
1952 478 216 220
1953 482 216 218
1954 479 217 219
1955 480 217 220
1956 481 217 221
1957 483 217 218
1958 501 218 219
1959 502 218 220
1960 503 218 222
1961 551 218 221
1962 801 218 234
1963 802 218 235
1964 486 219 220
1965 487 219 222
1966 488 219 223
1967 492 219 221
1968 489 220 222
1969 490 220 223
1970 493 220 221
1971 494 220 224
1972 495 221 222
1973 498 221 223
1974 544 221 224
1975 545 221 225
1976 491 222 223
1977 496 222 224
1978 497 222 225
1979 504 222 234
1980 505 222 231
1981 499 223 224
1982 500 223 225
1983 546 224 225
1984 547 224 226
1985 548 225 226
1986 549 225 227
1987 550 225 230
1988 552 225 231
1989 804 231 234
1990 806 231 235
1991 258 231 232
1992 828 231 233
1993 808 233 234
1994 810 233 235
1995 1000 233 236
1996 1007 233 237
1997 737 234 238
1998 803 234 235
1999 809 234 237
2000 813 234 236
2001 553 226 227
2002 554 226 228
2003 820 227 228
2004 822 227 229
2005 824 227 231
2006 859 227 230
2007 815 228 229
2008 816 228 231
2009 817 228 232
2010 821 228 230
2011 818 229 231
2012 819 229 232
2013 823 229 230
2014 827 229 233
2015 812 230 234
2016 825 230 231
2017 826 230 232
2018 860 230 233
2019 805 232 234
2020 807 232 235
2021 150 232 233
2022 829 232 236
2023 870 78 79
2024 871 78 80
2025 872 78 81
2026 873 78 82
2027 412 79 80
2028 861 79 81
2029 862 79 82
2030 863 79 83
2031 555 80 84
2032 864 80 81
2033 865 80 82
2034 866 80 83
2035 2079 434 436
2036 63 434 435
2037 908 159 160
2038 887 262 263
2039 888 262 264
2040 889 262 265
2041 890 262 266
2042 891 263 264
2043 892 263 265
2044 893 263 266
2045 894 263 267
2046 895 264 265
2047 896 264 266
2048 897 264 267
2049 898 264 268
2050 63 265 266
2051 1012 265 267
2052 1013 265 268
2053 1014 265 269
2054 1015 266 267
2055 1016 266 268
2056 1017 266 269
2057 1024 266 270
2058 901 267 289
2059 1018 267 268
2060 1019 267 269
2061 1021 267 271
2062 1025 267 270
2063 1023 269 271
2064 1027 269 270
2065 1028 269 273
2066 1030 269 272
2067 912 172 173
2068 918 172 174
2069 1020 268 269
2070 1022 268 271
2071 1026 268 270
2072 1029 268 272
2073 766 270 271
2074 1066 270 273
2075 1067 270 274
2076 1068 270 272
2077 611 271 287
2078 1031 271 286
2079 1035 271 273
2080 1036 271 274
2081 1037 271 272
2082 1038 271 275
2083 1070 272 273
2084 1073 272 274
2085 1083 272 275
2086 1084 272 276
2087 1069 273 274
2088 1071 273 275
2089 1072 273 276
2090 1077 273 277
2091 1074 274 275
2092 1075 274 276
2093 1076 274 282
2094 1078 274 277
2095 1085 275 276
2096 859 275 277
2097 1087 275 278
2098 1040 283 285
2099 1079 283 284
2100 1041 284 285
2101 1042 284 286
2102 1032 285 287
2103 1039 285 286
2104 1033 286 287
2105 1034 286 288
2106 899 287 289
2107 476 287 288
2108 879 288 290
2109 900 288 289
2110 14 289 290
2111 878 289 291
2112 566 290 292
2113 877 290 291
2114 2110 428 431
2115 2118 428 429
2116 2119 428 430
2117 2116 429 431
2118 2126 429 430
2119 2090 430 431
2120 2125 430 432
2121 2114 431 432
2122 2115 431 433
2123 2108 432 433
2124 2109 432 434
2125 353 433 434
2126 2107 433 435
2127 976 40 41
2128 977 40 42
2129 978 40 43
2130 981 40 44
2131 936 43 44
2132 937 43 45
2133 985 43 152
2134 987 43 150
2135 642 44 47
2136 924 44 45
2137 925 44 46
2138 926 44 157
2139 930 44 156
2140 643 45 47
2141 927 45 46
2142 928 45 157
2143 931 45 156
2144 938 45 158
2145 939 45 159
2146 1003 150 151
2147 1004 150 152
2148 989 151 152
2149 990 151 153
2150 945 152 154
2151 988 152 153
2152 946 153 154
2153 947 153 155
2154 948 153 156
2155 942 154 155
2156 943 154 156
2157 903 155 158
2158 905 155 159
2159 932 155 157
2160 944 155 156
2161 949 155 161
2162 951 155 162
2163 952 155 160
2164 904 156 158
2165 906 156 159
2166 933 156 157
2167 950 156 161
2168 953 156 160
2169 940 157 158
2170 941 157 159
2171 902 158 159
2172 907 158 160
2173 1043 160 161
2174 1044 160 162
2175 1047 161 162
2176 480 161 163
2177 1048 161 164
2178 1049 161 165
2179 1050 162 163
2180 1051 162 164
2181 1052 162 165
2182 1056 162 166
2183 1053 163 164
2184 1054 163 165
2185 1057 163 166
2186 1058 163 167
2187 1055 164 165
2188 1059 164 166
2189 1060 164 167
2190 1062 164 168
2191 970 165 248
2192 823 165 166
2193 1061 165 167
2194 1063 165 168
2195 1045 166 168
2196 1064 166 167
2197 1046 167 168
2198 1065 167 169
2199 923 168 172
2200 972 168 170
2201 576 168 169
2202 921 169 171
2203 922 169 172
2204 971 169 170
2205 916 170 173
2206 919 170 171
2207 920 170 172
2208 961 170 244
2209 911 171 173
2210 486 171 172
2211 917 171 174
2212 618 173 251
2213 685 173 175
2214 913 173 174
2215 914 173 247
2216 915 173 248
2217 968 240 244
2218 994 240 241
2219 995 240 242
2220 996 240 243
2221 962 241 244
2222 991 241 242
2223 992 241 243
2224 673 244 246
2225 598 244 245
2226 957 244 247
2227 958 244 248
2228 674 245 246
2229 954 245 249
2230 959 245 247
2231 960 245 248
2232 623 248 251
2233 666 248 250
2234 910 248 252
2235 956 248 249
2236 858 74 76
2237 1010 74 75
2238 1086 276 277
2239 1088 276 278
2240 1097 277 278
2241 1098 277 279
2242 1099 277 281
2243 1100 277 282
2244 1092 278 280
2245 1094 278 281
2246 1095 278 282
2247 1101 278 279
2248 1093 279 280
2249 574 279 281
2250 1096 279 282
2251 1089 280 281
2252 1090 280 282
2253 1080 281 283
2254 1091 281 282
2255 1081 282 283
2256 1082 282 284
