ITEM: TIMESTEP
154
ITEM: NUMBER OF ATOMS
596
ITEM: BOX BOUNDS pp pp pp
6.4189999999999996e+00 1.8957800000000000e+02
1.2012000000000000e+01 1.8738999999999999e+02
-1.1147900000000000e+02 9.0066999999999993e+01
ITEM: ATOMS id type xu yu zu
1 1 102.205 101.969 -4.31062
2 2 100.003 105.033 -3.90374
3 3 96.6737 105.537 -1.90988
4 4 93.8703 106.887 -4.16393
5 5 92.1034 109.406 -1.73242
6 6 88.5215 109.525 -2.98779
7 7 88.3164 106.391 -5.21005
8 8 86.9712 103.768 -2.58818
9 9 84.0332 106.1 -1.99462
10 10 83.6236 106.525 -5.86167
11 11 85.4067 109.71 -6.86197
12 12 88.5432 110.278 -8.97127
13 13 91.0441 113.151 -8.20526
14 14 90.0792 114.343 -11.7525
15 15 86.3531 114.378 -10.8607
16 16 87.0873 116.676 -7.8466
17 17 89.5069 118.799 -10.0726
18 18 86.7249 119.189 -12.6054
19 19 84.9826 121.546 -10.2271
20 20 86.2796 125.16 -9.35158
21 21 88.7945 125.152 -6.30803
22 22 86.8022 127.711 -4.5127
23 23 83.3916 125.834 -4.51081
24 24 83.9532 123.945 -1.17545
25 25 83.2196 125.372 2.30551
26 26 86.1068 126.752 4.42462
27 27 88.4278 125.226 6.96287
28 28 86.2824 126.796 9.73772
29 29 82.9704 126.133 7.78564
30 30 83.2571 122.411 7.28505
31 31 84.2715 122.111 10.9969
32 32 81.1584 124.251 11.9185
33 33 78.8094 122.334 9.62503
34 34 80.2023 118.919 10.9384
35 35 79.4912 120.128 14.5042
36 36 75.9583 121.539 13.7187
37 37 74.4621 118.714 11.652
38 38 76.6628 115.706 12.583
39 39 77.3617 115.941 16.3572
40 40 76.8883 112.391 17.6157
41 41 78.6439 111.086 14.5038
42 42 81.8119 112.938 15.7093
43 43 81.4854 111.207 19.2021
44 44 80.5571 107.723 17.8883
45 45 81.6879 104.499 19.6577
46 46 80.172 102.791 16.4318
47 47 81.7772 102.625 12.9857
48 48 78.5034 102.637 10.9624
49 49 78.7607 103.376 7.1328
50 50 82.2796 103.888 5.49808
51 51 81.6307 107.636 5.31258
52 52 81.3137 107.946 9.08719
53 53 84.7044 106.381 9.79654
54 54 86.4572 108.364 7.04034
55 55 84.9204 111.576 8.33687
56 56 86.2635 111.042 11.8429
57 57 89.7259 110.197 10.5765
58 58 89.8177 113.311 8.32718
59 59 89.2241 115.707 11.245
60 60 92.0246 113.876 13.0579
61 61 94.4124 114.116 9.9979
62 62 94.1433 118.007 10.0473
63 63 94.5076 117.815 13.8225
64 64 98.0921 116.625 13.6851
65 65 98.5836 119.056 10.7146
66 66 97.4175 122.172 12.4569
67 67 99.2437 121.08 15.6661
68 68 102.54 121.185 13.4434
69 69 101.397 124.429 11.6396
70 70 100.864 126.097 15.0361
71 71 104.237 124.833 16.3597
72 72 106.102 125.857 13.217
73 73 104.667 129.483 13.4632
74 74 105.839 129.507 17.1437
75 75 109.405 128.388 16.11
76 76 109.446 131.131 13.3446
77 77 110.338 134.666 14.464
78 78 108.802 136.413 11.3971
79 79 105.052 137.529 11.6123
80 80 104.795 137.568 7.78837
81 81 105.977 133.883 7.40774
82 82 103.343 132.844 10.0692
83 83 100.756 134.153 7.6511
84 84 102.474 132.177 4.94374
85 85 102.386 128.867 6.8806
86 86 98.5947 129.113 7.76915
87 87 98.0326 130.172 4.08805
88 88 99.965 127.071 2.66952
89 89 98.0607 124.918 5.16574
90 90 94.6895 126.464 4.21515
91 91 95.5404 126.416 0.425079
92 92 98.2323 124 -1.00238
93 93 97.5787 121.183 1.41757
94 94 94.105 122.272 2.92614
95 95 92.3135 122.306 -0.382648
96 96 92.5814 118.484 -0.524197
97 97 91.3885 118.479 3.13676
98 98 88.3761 120.673 2.1737
99 99 87.5902 118.241 -0.774026
100 100 87.9561 115.065 1.38073
101 101 85.6645 116.214 4.41992
102 102 83.1734 118.095 2.06055
103 103 82.9049 114.874 0.0142934
104 104 82.2242 112.75 2.98166
105 105 79.6278 115.207 4.35691
106 106 77.8047 115.508 1.00959
107 107 77.8039 111.744 0.479503
108 108 76.7729 111.009 4.06377
109 109 73.9471 113.571 3.89214
110 110 72.5406 112.84 0.371562
111 111 74.1422 109.541 -0.860742
112 112 76.8729 109.215 -3.48123
113 113 75.3122 109.025 -6.96038
114 114 73.2555 112.26 -6.86061
115 115 76.4064 113.925 -5.6676
116 116 78.4822 112.13 -8.50782
117 117 75.7883 113.357 -11.0436
118 118 75.8328 116.767 -9.326
119 119 79.6338 116.941 -10.0349
120 120 79.3742 116.612 -13.8532
121 121 76.329 118.767 -13.8966
122 122 77.7536 121.65 -11.7287
123 123 80.7861 121.207 -14.1047
124 124 78.7756 121.474 -17.2904
125 125 76.9259 124.487 -15.8255
126 126 80.2748 126.234 -14.9378
127 127 81.9472 125.167 -18.3303
128 128 78.8187 126.483 -20.0104
129 129 79.9515 130.036 -20.641
130 130 78.8468 132.72 -18.1311
131 131 76.1679 134.598 -20.2909
132 132 74.8742 131.482 -22.0241
133 133 74.1886 129.788 -18.6363
134 134 70.8013 128.418 -17.4892
135 135 69.5815 130.772 -14.6456
136 136 69.5851 128.173 -11.9401
137 137 72.5816 125.905 -11.3923
138 138 71.9392 121.992 -11.1483
139 139 72.0146 120.692 -7.57387
140 140 71.8048 117.117 -5.83304
141 141 68.2245 115.641 -5.25477
142 142 66.7912 116.542 -1.75767
143 143 63.3947 115.091 -2.53316
144 144 63.3833 111.707 -0.575889
145 145 60.8443 110.411 -2.93107
146 146 58.8856 108.576 -0.180155
147 147 56.3798 109.706 2.51066
148 148 58.44 108.489 5.54799
149 149 60.9852 110.576 7.68146
150 150 83.097 116.813 20.6864
151 151 86.6515 117.036 19.4122
152 152 87.6192 113.43 18.2881
153 153 89.1137 110.641 20.4777
154 154 90.8706 108.487 17.8259
155 155 90.1848 104.853 18.9402
156 156 86.7793 105.369 20.497
157 157 84.955 103.788 17.5069
158 158 87.5107 101.039 17.4068
159 159 87.0298 99.845 21.0193
160 160 90.2277 101.412 22.5068
161 161 91.9332 104.276 24.3786
162 162 94.8018 106.755 23.8471
163 163 95.4349 106.298 27.5604
164 164 96.6021 102.631 26.9673
165 165 98.1762 103.318 23.5617
166 166 100.397 106.206 24.7524
167 167 101.578 104.289 27.951
168 168 103.573 101.889 25.726
169 169 107.363 102.591 24.9637
170 170 108.39 104.067 21.5969
171 171 110.794 101.064 20.8244
172 172 107.914 98.6091 21.2167
173 173 106.38 100.111 17.9844
174 174 108.014 99.3785 14.6327
175 175 108.997 102.452 12.454
176 176 106.498 104.203 10.1333
177 177 108.725 102.733 7.36023
178 178 107.924 99.0178 8.31871
179 179 104.115 99.8519 8.70664
180 180 104.287 101.408 5.2307
181 181 106.098 98.3022 3.9706
182 182 103.513 95.9363 5.61312
183 183 100.662 97.9347 4.02371
184 184 102.236 97.6641 0.527413
185 185 103.326 93.9859 1.0632
186 186 100.152 92.1945 2.46608
187 187 97.2906 94.6062 1.86668
188 188 98.056 96.234 -1.46427
189 189 94.9622 94.6659 -3.03471
190 190 92.608 95.9664 -0.380774
191 191 94.2839 99.48 -0.33744
192 192 93.843 99.7233 -4.25443
193 193 90.2452 98.2838 -3.77794
194 194 87.1488 99.8431 -5.75625
195 195 85.0742 98.5172 -2.92503
196 196 84.8048 98.9353 0.914721
197 197 86.7356 96.3253 3.07986
198 198 86.9065 97.2611 6.8361
199 199 87.0816 100.389 8.88395
200 200 90.7275 99.2691 9.66938
201 201 91.5946 99.2339 5.93026
202 202 89.9687 102.688 5.56802
203 203 91.8879 104.108 8.6069
204 204 94.9461 102.638 7.00551
205 205 94.2274 104.539 3.89273
206 206 93.454 107.746 5.83325
207 207 96.4975 107.763 8.09909
208 208 99.0467 107.262 5.19868
209 209 97.3291 110.361 3.47219
210 210 97.7141 112.015 6.88612
211 211 101.46 111.295 7.13214
212 212 102.025 112.283 3.56575
213 213 100.704 115.807 3.82702
214 214 102.627 116.004 7.18711
215 215 105.892 115.084 5.47632
216 216 105.261 117.52 2.52125
217 217 104.53 120.395 5.00937
218 218 107.795 119.62 7.034
219 219 109.698 119.387 3.79497
220 220 108.314 122.597 2.307
221 221 109.136 124.381 5.66227
222 222 112.562 122.778 5.72989
223 223 113.031 123.908 2.13219
224 224 112.218 127.524 3.07621
225 225 114.732 127.715 5.93146
226 226 118.415 127.905 5.09469
227 227 119.522 126.606 8.48626
228 228 120.254 122.679 8.54236
229 229 119.675 122.572 12.3831
230 230 116.279 124.321 12.0831
231 231 115.301 121.57 9.37692
232 232 116.606 118.846 11.804
233 233 114.362 120.587 14.4833
234 234 111.185 120.484 12.2883
235 235 111.852 117.026 11.0293
236 236 112.618 115.531 14.4468
237 237 109.269 117.045 15.7134
238 238 107.538 115.139 12.8285
239 239 109.307 111.761 13.6553
240 240 108.844 112.162 17.5089
241 241 106.12 114.54 18.8791
242 242 103.769 113.915 15.9118
243 243 105.236 110.608 14.6474
244 244 104.959 108.578 17.7881
245 245 101.152 108.99 17.3614
246 246 101.343 107.662 13.7381
247 247 103.34 104.627 14.8824
248 248 100.489 103.902 17.4179
249 249 97.7949 104.61 14.8762
250 250 99.216 102.703 11.8658
251 251 100.327 99.7715 14.1852
252 252 96.8517 99.4786 15.8277
253 253 95.0958 99.2909 12.3266
254 254 97.7662 97.112 10.7173
255 255 97.8027 94.7551 13.5655
256 256 93.9894 94.3877 13.7051
257 257 94.0484 93.5786 9.97533
258 258 96.8729 90.9245 10.5683
259 259 95.6602 89.4835 13.8254
260 260 92.029 90.5528 14.5347
261 261 91.1196 93.5105 16.8979
262 262 90.1615 91.4422 20.0493
263 263 93.3221 89.2606 19.8009
264 264 95.525 92.4791 19.7174
265 265 93.9054 94.2479 22.6781
266 266 94.1189 91.1111 24.9212
267 267 97.8199 91.0725 23.9498
268 268 98.0444 94.7101 24.9946
269 269 96.0875 94.0736 28.277
270 270 98.4554 91.1859 29.2307
271 271 101.477 93.4771 28.2556
272 272 100.074 96.2613 30.474
273 273 99.9698 94.352 33.8388
274 274 103.719 93.4481 33.2009
275 275 104.754 97.1557 32.7263
276 276 102.556 98.0745 35.751
277 277 104.451 95.3076 37.7465
278 278 107.815 96.7747 39.1293
279 279 110.87 95.3659 37.2476
280 280 112.167 92.8261 39.8255
281 281 108.713 91.5109 40.5123
282 282 108.047 90.3813 36.9484
283 283 108.53 87.1374 34.7459
284 284 111.936 86.9065 32.8172
285 285 110.451 87.231 29.2448
286 286 107.852 89.9952 28.5165
287 287 104.788 88.9075 26.5604
288 288 105.741 88.4575 22.8309
289 289 103.324 89.0126 19.8849
290 290 100.759 86.2076 19.2645
291 291 100.678 83.8153 16.2231
292 292 98.9743 84.6539 12.9099
293 293 95.3893 83.3901 12.3213
294 294 95.1352 80.1072 10.2435
295 295 94.6725 80.9852 6.54777
296 296 96.0506 84.2084 5.29522
297 297 96.5619 83.4782 1.56102
298 298 94.6278 80.7817 -0.498754
299 299 100.271 97.8998 -20.1577
300 300 102.671 94.9531 -19.8169
301 301 102.359 92.2178 -17.1057
302 302 104.841 92.1018 -14.1899
303 303 107.776 89.6211 -14.3784
304 304 106.46 86.6001 -12.4219
305 305 102.554 86.875 -12.0301
306 306 101.646 83.891 -14.2158
307 307 103.39 81.7943 -11.5457
308 308 101.457 83.4186 -8.76988
309 309 103.89 85.9165 -7.49693
310 310 103.972 89.7399 -7.34895
311 311 107.4 91.3099 -7.04467
312 312 106.23 93.2824 -4.03835
313 313 105.771 89.9962 -2.03204
314 314 109.297 88.851 -3.21911
315 315 110.783 92.2261 -2.0582
316 316 108.717 92.3993 1.1464
317 317 111.865 90.6755 2.38074
318 318 115.172 92.6507 2.19483
319 319 117.666 92.3717 -0.72255
320 320 120.023 90.0285 1.22033
321 321 117.4 87.3362 1.8466
322 322 118.089 85.1146 -1.26214
323 323 121.171 82.9747 -1.83226
324 324 123.668 84.3299 -4.41993
325 325 123.272 83.4402 -8.1949
326 326 126.159 80.9079 -7.82497
327 327 124.086 79.0672 -5.13033
328 328 120.797 78.828 -7.03547
329 329 122.537 77.5782 -10.1979
330 330 124.088 74.9233 -7.99358
331 331 120.477 74.2165 -6.47317
332 332 118.972 73.8161 -9.95269
333 333 121.574 71.1971 -10.9976
334 334 121.531 69.5049 -7.70017
335 335 117.912 68.5634 -7.40133
336 336 116.488 68.9305 -10.9744
337 337 119.285 68.1621 -13.5777
338 338 117.837 65.2568 -15.564
339 339 114.392 66.945 -15.6976
340 340 115.984 70.3537 -16.7887
341 341 117.944 68.5397 -19.545
342 342 114.958 66.1587 -20.4611
343 343 113.107 66.8769 -23.8318
344 344 109.88 66.4233 -21.8368
345 345 107.63 69.5351 -21.0219
346 346 107.616 68.9241 -17.244
347 347 106.051 71.8349 -15.1436
348 348 105.965 75.4474 -16.5448
349 349 108.392 76.2534 -13.6674
350 350 110.945 74.0533 -15.4653
351 351 110.24 75.8781 -18.7914
352 352 110.859 79.1872 -17.1098
353 353 114.095 77.9226 -15.3179
354 354 115.333 76.3332 -18.6611
355 355 114.997 79.7564 -20.1727
356 356 116.372 81.5931 -17.1294
357 357 119.683 79.6925 -16.9885
358 358 120.293 80.5294 -20.7506
359 359 119.314 84.1955 -20.0959
360 360 121.956 84.2993 -17.2548
361 361 124.399 83.0737 -19.8866
362 362 123.756 85.9386 -22.3061
363 363 123.986 88.6753 -19.5909
364 364 127.423 87.2061 -18.5692
365 365 128.479 86.986 -22.2239
366 366 127.325 90.5122 -22.9302
367 367 129.081 91.7076 -19.7039
368 368 132.411 90.1391 -20.8165
369 369 132.207 91.5012 -24.391
370 370 132.046 94.9874 -22.871
371 371 135.302 94.3854 -21.0938
372 372 137.166 93.2158 -24.2164
373 373 135.644 95.6739 -26.7455
374 374 136.014 99.0459 -24.692
375 375 139.524 100.267 -24.0031
376 376 138.523 103.692 -22.6401
377 377 136.91 102.991 -19.1378
378 378 139.395 102.923 -16.3511
379 379 137.452 99.9672 -14.8885
380 380 137.043 96.8076 -16.9244
381 381 135.051 95.1779 -14.0941
382 382 132.266 97.7315 -13.6996
383 383 129.591 96.012 -15.848
384 384 130.523 92.4719 -14.5771
385 385 130.046 93.8938 -10.9431
386 386 126.761 95.5399 -12.0052
387 387 125.597 92.1311 -13.3361
388 388 126.561 90.0726 -10.2009
389 389 125 92.6247 -7.86803
390 390 122.404 94.8899 -9.46998
391 391 121.199 92.6347 -12.4523
392 392 121.648 89.7533 -10.0384
393 393 119.062 90.6071 -7.37422
394 394 116.129 90.0068 -9.67573
395 395 117.802 86.8084 -10.9475
396 396 117.94 85.6559 -7.28098
397 397 114.097 86.2277 -6.9205
398 398 113.415 84.2754 -10.1709
399 399 115.708 81.2542 -9.6389
400 400 114.878 81.0215 -5.81027
401 401 111.139 81.2362 -6.45843
402 402 110.79 78.8784 -9.43925
403 403 112.786 76.2671 -7.61977
404 404 110.774 76.8357 -4.45986
405 405 107.367 76.4844 -6.09483
406 406 108.416 73.2781 -7.82078
407 407 110.039 71.9523 -4.5296
408 408 107.77 73.1203 -1.71317
409 409 104.385 73.9469 -3.40453
410 410 103.027 77.305 -4.53511
411 411 100.656 78.0293 -1.52675
412 412 103.488 77.1268 0.899221
413 413 105.884 79.5051 -0.708362
414 414 103.393 82.3809 -0.633975
415 415 102.762 81.4259 3.02794
416 416 106.398 81.5571 4.04977
417 417 106.719 85.0287 2.24891
418 418 104.066 86.8158 4.28575
419 419 104.716 84.9593 7.61475
420 420 108.514 84.9145 7.79564
421 421 108.617 88.4865 6.41955
422 422 106.692 89.578 9.61465
423 423 109.313 87.7878 11.7243
424 424 112.241 89.5532 9.82271
425 425 110.473 93.0116 10.1958
426 426 109.809 92.292 13.9144
427 427 112.356 93.6959 16.5705
428 428 114.931 91.0053 17.8963
429 429 113.95 91.1961 21.7712
430 430 110.273 90.4556 20.6701
431 431 110.775 87.5009 18.1903
432 432 111.307 83.9582 19.5057
433 433 114.038 81.7995 17.9423
434 434 111.386 79.4537 16.3791
435 435 110.084 80.5507 12.9157
436 436 108.158 79.3922 9.84489
437 437 110.475 76.9549 7.89879
438 438 110.769 75.6711 4.2899
439 439 110.864 71.7338 4.528
440 440 109.215 68.5537 2.9568
441 441 109.875 66.4414 6.0881
442 442 106.245 67.3819 7.47617
443 443 104.764 65.3917 4.51087
444 444 107.297 62.4563 5.0589
445 445 107.813 61.9526 8.95576
446 446 106.575 63.128 12.373
447 447 107.384 66.8425 13.5057
448 448 124.33 73.7966 -17.7171
449 449 123.924 75.0851 -21.3594
450 450 120.703 73.3503 -22.2921
451 451 119.63 72.4065 -25.8864
452 452 116.928 75.1405 -26.2906
453 453 114.012 73.7232 -28.3479
454 454 114.221 70.0745 -27.0217
455 455 111.312 70.6419 -24.5039
456 456 109.142 72.117 -27.3553
457 457 110.243 69.163 -29.4831
458 458 112.871 70.4564 -31.8472
459 459 116.648 70.5376 -32.3449
460 460 119.15 73.3229 -33.3071
461 461 119.787 71.3969 -36.5042
462 462 116.283 71.9831 -37.7086
463 463 116.798 75.8392 -37.3142
464 464 120.287 75.519 -38.7858
465 465 118.821 73.9029 -41.864
466 466 116.968 77.2145 -42.7038
467 467 118.891 80.0765 -44.395
468 468 120.336 82.2638 -41.5233
469 469 118.789 85.4164 -42.9429
470 470 115.35 83.636 -43.2662
471 471 113.97 84.5999 -39.8082
472 472 112.355 88.2097 -39.3625
473 473 113.78 90.9612 -37.0811
474 474 113.389 90.6294 -33.3072
475 475 111.751 94.1002 -33.4737
476 476 109.226 92.7935 -36.0587
477 477 108.457 89.7176 -33.8327
478 478 107.905 91.9359 -30.7404
479 479 105.436 93.7617 -32.9017
480 480 103.93 90.3999 -34.2828
481 481 103.305 89.3151 -30.719
482 482 101.655 92.5652 -29.9507
483 483 99.3872 92.3768 -32.9387
484 484 98.3838 88.6879 -32.5205
485 485 98.6046 87.7418 -28.8528
486 486 98.3669 90.9974 -26.9106
487 487 96.2147 89.3247 -24.1478
488 488 99.0916 86.9394 -23.2313
489 489 101.406 90.0136 -23.2757
490 490 99.3288 92.381 -21.0243
491 491 97.7529 89.6689 -18.7877
492 492 99.2156 86.4732 -17.1795
493 493 96.742 84.6155 -19.7258
494 494 97.3145 80.8137 -20.1313
495 495 99.9923 78.5096 -18.5977
496 496 99.9593 76.3388 -21.8236
497 497 103.589 75.6489 -23.1323
498 498 103.991 78.3386 -25.6415
499 499 102.159 81.2041 -23.7951
500 500 104.268 80.6723 -20.8474
501 501 107.42 80.3355 -23.0454
502 502 106.706 83.6373 -25.0833
503 503 106.71 85.8724 -21.9331
504 504 109.954 84.3023 -20.7714
505 505 111.54 84.9044 -24.1839
506 506 110.49 88.6127 -24.1249
507 507 111.884 88.9075 -20.6369
508 508 115.227 87.3588 -21.7981
509 509 115.445 89.9349 -24.5192
510 510 114.196 92.7501 -22.1056
511 511 116.964 92.1023 -19.5797
512 512 119.538 92.1054 -22.4925
513 513 118.074 95.461 -23.6676
514 514 118 96.8482 -20.0587
515 515 121.692 96.0409 -19.4771
516 516 122.766 97.0706 -23.1227
517 517 120.814 100.389 -22.7167
518 518 122.446 100.599 -19.2254
519 519 126.027 100.303 -20.7186
520 520 124.572 102.594 -23.3125
521 521 123.536 105.329 -20.943
522 522 126.018 104.944 -18.0854
523 523 129.298 104.753 -19.9071
524 524 130.339 108.182 -21.5956
525 525 133.954 107.291 -22.1759
526 526 133.27 105.299 -25.402
527 527 132.908 107.562 -28.3864
528 528 129.969 105.592 -29.8138
529 529 127.37 104.436 -27.2655
530 530 125.157 102.311 -29.5618
531 531 127.944 99.552 -29.9139
532 532 126.624 97.1444 -27.226
533 533 123.054 97.5956 -28.3699
534 534 124.18 96.9996 -32.0092
535 535 125.905 93.7496 -30.6852
536 536 122.541 92.4125 -29.2348
537 537 120.588 93.171 -32.4519
538 538 123.325 91.3562 -34.4747
539 539 125.199 88.4335 -32.9672
540 540 122.92 87.649 -30.0236
541 541 119.752 88.5182 -31.8326
542 542 120.029 85.7438 -34.3246
543 543 118.649 83.2426 -31.6524
544 544 115.812 85.6219 -30.5707
545 545 114.64 85.7215 -34.1922
546 546 114.669 81.8963 -34.1388
547 547 113.066 81.8124 -30.7114
548 548 110.309 84.4477 -30.8914
549 549 109.149 83.3207 -34.3708
550 550 108.799 79.7706 -33.2659
551 551 106.671 80.644 -30.2914
552 552 104.607 83.0781 -32.3025
553 553 104.134 80.5229 -35.0919
554 554 103.392 77.6353 -32.6343
555 555 100.404 79.7709 -31.2552
556 556 99.4326 80.5142 -34.8538
557 557 99.7222 77.1475 -36.7814
558 558 100.517 74.6255 -33.8847
559 559 104.032 73.3493 -33.6061
560 560 103.658 70.1671 -35.8147
561 561 102.749 72.1036 -39.0667
562 562 105.618 74.5517 -38.2954
563 563 108.221 71.6866 -37.8354
564 564 106.81 70.0959 -41.1006
565 565 107.189 73.6177 -42.6495
566 566 110.76 74.1974 -41.3426
567 567 112.043 70.8644 -42.5384
568 568 110.325 70.9129 -45.9036
569 569 112.036 74.1984 -46.5308
570 570 115.615 73.1314 -45.8578
571 571 115.422 70.56 -48.5893
572 572 114.007 73.1631 -51.1448
573 573 116.821 75.5343 -50.8061
574 574 119.449 72.6704 -50.8544
575 575 117.917 71.3293 -54.152
576 576 119.392 73.4025 -57.0552
577 577 117.112 76.1941 -58.6276
578 578 116.227 73.9935 -61.6249
579 579 115.382 70.8548 -59.8232
580 580 113.273 72.5227 -56.9765
581 581 109.559 73.1362 -57.8643
582 582 109.522 76.8015 -58.7466
583 583 107.308 78.243 -56.0038
584 584 108.682 78.0303 -52.4146
585 585 107.001 76.0566 -49.4876
586 586 104.801 78.5775 -47.6219
587 587 102.798 78.3467 -44.4589
588 588 99.704 80.6193 -44.4246
589 589 96.5657 78.6001 -43.9274
590 590 95.1797 79.5064 -40.4103
591 591 94.0638 76.0737 -38.8474
592 592 90.3098 76.5725 -38.5416
593 593 89.9207 78.2582 -42.1454
594 594 87.6886 76.4603 -44.6463
595 595 89.6837 77.638 -47.7017
596 596 92.5193 75.3339 -48.822
