LAMMPS data file via write_data, version 22 Jul 2025, timestep = 1000000, units = real

596 atoms
596 atom types
2256 bonds
2126 bond types

6.419 189.578 xlo xhi
12.012 187.39 ylo yhi
-111.479 90.067 zlo zhi

Masses

1 110
2 110
3 110
4 110
5 110
6 110
7 110
8 110
9 110
10 110
11 110
12 110
13 110
14 110
15 110
16 110
17 110
18 110
19 110
20 110
21 110
22 110
23 110
24 110
25 110
26 110
27 110
28 110
29 110
30 110
31 110
32 110
33 110
34 110
35 110
36 110
37 110
38 110
39 110
40 110
41 110
42 110
43 110
44 110
45 110
46 110
47 110
48 110
49 110
50 110
51 110
52 110
53 110
54 110
55 110
56 110
57 110
58 110
59 110
60 110
61 110
62 110
63 110
64 110
65 110
66 110
67 110
68 110
69 110
70 110
71 110
72 110
73 110
74 110
75 110
76 110
77 110
78 110
79 110
80 110
81 110
82 110
83 110
84 110
85 110
86 110
87 110
88 110
89 110
90 110
91 110
92 110
93 110
94 110
95 110
96 110
97 110
98 110
99 110
100 110
101 110
102 110
103 110
104 110
105 110
106 110
107 110
108 110
109 110
110 110
111 110
112 110
113 110
114 110
115 110
116 110
117 110
118 110
119 110
120 110
121 110
122 110
123 110
124 110
125 110
126 110
127 110
128 110
129 110
130 110
131 110
132 110
133 110
134 110
135 110
136 110
137 110
138 110
139 110
140 110
141 110
142 110
143 110
144 110
145 110
146 110
147 110
148 110
149 110
150 110
151 110
152 110
153 110
154 110
155 110
156 110
157 110
158 110
159 110
160 110
161 110
162 110
163 110
164 110
165 110
166 110
167 110
168 110
169 110
170 110
171 110
172 110
173 110
174 110
175 110
176 110
177 110
178 110
179 110
180 110
181 110
182 110
183 110
184 110
185 110
186 110
187 110
188 110
189 110
190 110
191 110
192 110
193 110
194 110
195 110
196 110
197 110
198 110
199 110
200 110
201 110
202 110
203 110
204 110
205 110
206 110
207 110
208 110
209 110
210 110
211 110
212 110
213 110
214 110
215 110
216 110
217 110
218 110
219 110
220 110
221 110
222 110
223 110
224 110
225 110
226 110
227 110
228 110
229 110
230 110
231 110
232 110
233 110
234 110
235 110
236 110
237 110
238 110
239 110
240 110
241 110
242 110
243 110
244 110
245 110
246 110
247 110
248 110
249 110
250 110
251 110
252 110
253 110
254 110
255 110
256 110
257 110
258 110
259 110
260 110
261 110
262 110
263 110
264 110
265 110
266 110
267 110
268 110
269 110
270 110
271 110
272 110
273 110
274 110
275 110
276 110
277 110
278 110
279 110
280 110
281 110
282 110
283 110
284 110
285 110
286 110
287 110
288 110
289 110
290 110
291 110
292 110
293 110
294 110
295 110
296 110
297 110
298 110
299 110
300 110
301 110
302 110
303 110
304 110
305 110
306 110
307 110
308 110
309 110
310 110
311 110
312 110
313 110
314 110
315 110
316 110
317 110
318 110
319 110
320 110
321 110
322 110
323 110
324 110
325 110
326 110
327 110
328 110
329 110
330 110
331 110
332 110
333 110
334 110
335 110
336 110
337 110
338 110
339 110
340 110
341 110
342 110
343 110
344 110
345 110
346 110
347 110
348 110
349 110
350 110
351 110
352 110
353 110
354 110
355 110
356 110
357 110
358 110
359 110
360 110
361 110
362 110
363 110
364 110
365 110
366 110
367 110
368 110
369 110
370 110
371 110
372 110
373 110
374 110
375 110
376 110
377 110
378 110
379 110
380 110
381 110
382 110
383 110
384 110
385 110
386 110
387 110
388 110
389 110
390 110
391 110
392 110
393 110
394 110
395 110
396 110
397 110
398 110
399 110
400 110
401 110
402 110
403 110
404 110
405 110
406 110
407 110
408 110
409 110
410 110
411 110
412 110
413 110
414 110
415 110
416 110
417 110
418 110
419 110
420 110
421 110
422 110
423 110
424 110
425 110
426 110
427 110
428 110
429 110
430 110
431 110
432 110
433 110
434 110
435 110
436 110
437 110
438 110
439 110
440 110
441 110
442 110
443 110
444 110
445 110
446 110
447 110
448 110
449 110
450 110
451 110
452 110
453 110
454 110
455 110
456 110
457 110
458 110
459 110
460 110
461 110
462 110
463 110
464 110
465 110
466 110
467 110
468 110
469 110
470 110
471 110
472 110
473 110
474 110
475 110
476 110
477 110
478 110
479 110
480 110
481 110
482 110
483 110
484 110
485 110
486 110
487 110
488 110
489 110
490 110
491 110
492 110
493 110
494 110
495 110
496 110
497 110
498 110
499 110
500 110
501 110
502 110
503 110
504 110
505 110
506 110
507 110
508 110
509 110
510 110
511 110
512 110
513 110
514 110
515 110
516 110
517 110
518 110
519 110
520 110
521 110
522 110
523 110
524 110
525 110
526 110
527 110
528 110
529 110
530 110
531 110
532 110
533 110
534 110
535 110
536 110
537 110
538 110
539 110
540 110
541 110
542 110
543 110
544 110
545 110
546 110
547 110
548 110
549 110
550 110
551 110
552 110
553 110
554 110
555 110
556 110
557 110
558 110
559 110
560 110
561 110
562 110
563 110
564 110
565 110
566 110
567 110
568 110
569 110
570 110
571 110
572 110
573 110
574 110
575 110
576 110
577 110
578 110
579 110
580 110
581 110
582 110
583 110
584 110
585 110
586 110
587 110
588 110
589 110
590 110
591 110
592 110
593 110
594 110
595 110
596 110

Atoms # bond

594 4 594 121.93886791882429 70.15274763747793 -40.99829691877015 0 0 0
587 4 587 131.36562997355526 71.49270202411532 -40.68928489078268 0 0 0
590 4 590 124.91519810050214 73.06343911508168 -40.82652483048005 0 0 0
588 4 588 129.1019136401707 69.16722668026212 -38.474951981252964 0 0 0
589 4 589 125.4158928912244 69.84055100186711 -39.18277249458851 0 0 0
592 4 592 120.13516790530065 76.41414280263444 -39.010945875280754 0 0 0
593 4 593 119.2549838855278 72.7220905353812 -40.21739793515237 0 0 0
591 4 591 123.71682431272617 75.78230412553899 -38.31326914049047 0 0 0
582 4 582 143.11681919869574 68.96678233585166 -48.8520583491017 0 0 0
583 4 583 141.41899874550734 66.83206153601733 -46.31258472537136 0 0 0
579 4 579 151.00941552912946 67.55491747930641 -46.30520340361774 0 0 0
586 4 586 135.03502154112329 70.95899447706928 -40.07918192757655 0 0 0
581 4 581 145.42312725673918 71.07797716745789 -46.640001035454425 0 0 0
584 4 584 138.31923353120837 68.21425152775473 -44.57801764365547 0 0 0
580 4 580 147.48538728747627 68.54809207869266 -44.91568000108832 0 0 0
585 4 585 138.16783878980402 71.28655206556532 -42.149462605983764 0 0 0
577 4 577 150.4471306560517 73.23174926139332 -45.78342550713445 0 0 0
575 4 575 150.5575136354865 69.4215534210117 -40.404624339384014 0 0 0
572 4 572 145.44066067009888 70.2717279729037 -39.71861343730091 0 0 0
578 4 578 151.7518405619473 70.6311202301833 -48.22176922657735 0 0 0
576 4 576 152.4536080174496 71.64121117500191 -42.80394905148408 0 0 0
493 4 493 113.01005988953075 78.30879076464146 -23.17776759160447 0 0 0
494 4 494 114.40321913438687 74.69369018950448 -22.75039040126275 0 0 0
596 4 596 119.38357649995282 67.70386127482188 -35.65756761245359 0 0 0
595 4 595 119.81829642534312 67.11367384429343 -39.4275407756425 0 0 0
560 4 560 129.74367914422234 65.06902362132107 -31.155477921101472 0 0 0
488 4 488 116.33953843768782 80.94407505509628 -25.41287725627174 0 0 0
561 4 561 130.19037273130465 66.638605259074 -34.70787038476991 0 0 0
499 4 499 120.24524208989159 76.13199640261546 -23.442076144855672 0 0 0
557 4 557 125.45943277517011 70.98518122740268 -34.97836905065952 0 0 0
556 4 556 123.62534390560504 74.23444591814443 -33.92744104305614 0 0 0
562 4 562 131.78476840848487 69.75199573373523 -33.02843479776077 0 0 0
555 4 555 122.86417023997011 73.8758042861911 -30.30404299691846 0 0 0
558 4 558 125.2274230098153 68.76914633977583 -31.780623289626355 0 0 0
498 4 498 123.19417524642732 73.73911825523996 -23.512822372217478 0 0 0
554 4 554 126.4993327065381 72.47025322543513 -29.686231511680386 0 0 0
559 4 559 128.1693880511509 68.3433865277676 -29.613959018959847 0 0 0
550 4 550 130.8911635397094 75.79105218844789 -27.873799849366637 0 0 0
553 4 553 127.76783517250654 75.25778863363627 -31.825982408893616 0 0 0
551 4 551 127.36956870296372 76.32788465794087 -26.533999104170583 0 0 0
552 4 552 126.32037736929485 78.04608607938066 -29.702037552966434 0 0 0
549 4 549 131.16590675159685 79.19190984408291 -29.349263635219938 0 0 0
548 4 548 130.1367303446337 80.84428630790771 -25.983419368035435 0 0 0
485 4 485 118.71068826839141 81.2206522376081 -30.533019584239486 0 0 0
547 4 547 132.80890370471772 78.95633644050048 -24.054613790492766 0 0 0
502 4 502 124.04068481300693 79.56381835371587 -22.752560215527613 0 0 0
484 4 484 119.98193558650946 81.86023229171829 -34.025206745001455 0 0 0
457 4 457 131.9250599034677 65.68945088156423 -22.159312576486364 0 0 0
496 4 496 118.27271276088743 70.91307361663641 -22.123218230415855 0 0 0
503 4 503 121.98447430741363 81.91612762912244 -20.249334008101513 0 0 0
456 4 456 129.33656028870845 68.36015309960312 -21.298168131394615 0 0 0
563 4 563 134.195907952496 67.53200255818174 -31.002291399507325 0 0 0
497 4 497 121.97358548089768 71.16754235811952 -20.973874933422394 0 0 0
564 4 564 135.04651670622795 65.68141973929342 -34.43795018521514 0 0 0
573 4 573 147.2093867349162 73.29742151249899 -38.348060937074855 0 0 0
565 4 565 135.37563284958622 69.18367584852207 -35.84035153016233 0 0 0
568 4 568 140.3435932964205 67.20452089344526 -36.63970624385159 0 0 0
458 4 458 135.14210004727028 67.55436944548723 -22.994041685037725 0 0 0
571 4 571 145.97351015136664 68.03893076479238 -36.470133793218345 0 0 0
567 4 567 140.00576673307197 67.615452863664 -32.981013545875584 0 0 0
546 4 546 136.01133077332406 79.25871928026844 -26.2117448993029 0 0 0
566 4 566 137.72371742477856 70.55033929740716 -33.00637180603845 0 0 0
574 4 574 150.0277646921803 71.08111858299081 -37.00772992645996 0 0 0
569 4 569 141.35456022994168 70.90064597225246 -36.827909069466706 0 0 0
570 4 570 144.35318810911554 70.6305797439462 -34.33384909659837 0 0 0
470 4 470 141.10146620007544 80.60955153935689 -33.911033068472996 0 0 0
467 4 467 145.21340834335453 77.84791305425323 -32.11411815187848 0 0 0
466 4 466 142.90399544031328 74.90548248440663 -31.414689706141413 0 0 0
462 4 462 140.5427183517456 69.78486844395358 -26.83641218276919 0 0 0
463 4 463 140.2007740138434 73.68946906108279 -26.683776538807074 0 0 0
461 4 461 143.1026792546096 70.05162039286618 -23.8917101155735 0 0 0
465 4 465 144.5448782474312 71.80379912208409 -29.389532862908524 0 0 0
464 4 464 143.95672383625612 74.03635922316396 -26.284042802206383 0 0 0
468 4 468 144.17574833069213 80.63179539604697 -29.309097047056706 0 0 0
471 4 471 137.80501235501384 81.34772667021981 -31.889841001419 0 0 0
543 4 543 137.70554788547207 81.61020099410091 -22.515672937441934 0 0 0
460 4 460 140.59861653052428 71.81881293254793 -21.80012800178719 0 0 0
459 4 459 138.51730993771832 68.55614936407119 -21.766527819577952 0 0 0
487 4 487 114.019032215049 82.47418416223124 -28.006201092653985 0 0 0
491 4 491 112.44853926770348 83.38982966011118 -22.586840560440354 0 0 0
299 3 299 113.86637525653158 91.88082647515898 -24.191829983852358 0 0 0
490 4 490 114.51569612188003 86.25378250236324 -24.2330096124578 0 0 0
300 3 300 116.20328405989015 89.6372451811879 -22.169425596072433 0 0 0
481 4 481 123.29440388808032 83.76062633200068 -30.418231256392083 0 0 0
486 4 486 116.96814988346136 84.41525159632283 -29.56636253387833 0 0 0
480 4 480 125.2932372786645 84.85255280729274 -33.34178384938389 0 0 0
489 4 489 117.82613519736756 84.42003271867105 -24.936612080576115 0 0 0
477 4 477 129.05042211133394 85.18553814023434 -30.568819292862408 0 0 0
483 4 483 120.41242511128196 85.69716434324063 -34.57321370659943 0 0 0
482 4 482 120.90798955979578 86.58314371459873 -31.109248534800177 0 0 0
479 4 479 125.36723701309224 88.52138403100537 -32.03624114883772 0 0 0
478 4 478 126.61688376490812 87.47859984454783 -28.56725284467484 0 0 0
476 4 476 130.36967917597275 88.18822001889892 -32.63262375914762 0 0 0
475 4 475 131.0203967577261 90.21377338405863 -29.604421720082662 0 0 0
474 4 474 132.82745365280803 87.3154009081772 -27.88206292838642 0 0 0
506 4 506 125.93623623434615 85.3297436304919 -20.756121848618644 0 0 0
544 4 544 134.3356586479932 83.31013347509455 -23.36539314373964 0 0 0
545 4 545 135.243086871506 82.81326583480701 -27.05951846725872 0 0 0
469 4 469 143.4338287009512 83.00162539342422 -31.999726208790108 0 0 0
473 4 473 135.02632212256648 87.45425836594222 -30.88943414234013 0 0 0
472 4 472 135.5260739091871 84.25420172305138 -33.105961025874635 0 0 0
542 4 542 139.76225606750847 84.35678135296479 -24.495985414930807 0 0 0
537 4 537 137.96971263834413 91.68793184001187 -23.88861801907453 0 0 0
538 4 538 141.6960486726882 90.54042489635964 -23.847587515875855 0 0 0
541 4 541 137.6697180368184 87.01848388796726 -23.060520313005178 0 0 0
534 4 534 140.11218672976972 96.27675942137108 -22.296064705245524 0 0 0
539 4 539 142.8033393761001 88.19071387719238 -21.068749026100573 0 0 0
533 4 533 137.0067227678263 96.82221829763917 -20.004276125035105 0 0 0
535 4 535 141.21952209665537 93.55976864072848 -19.656261755122998 0 0 0
536 4 536 137.92218755370533 91.67942675828877 -20.089000541009874 0 0 0
540 4 540 139.41711446294278 87.02435296002723 -19.804298619993318 0 0 0
139 1 139 74.89802508039185 114.28086369368293 -20.236737601605174 0 0 0
138 1 138 75.3917646726507 115.71363351670009 -23.688201284016188 0 0 0
118 1 118 79.76190598118242 111.28593436768433 -21.013186703683196 0 0 0
117 1 117 80.96021307792522 108.01693270863115 -22.877848915386192 0 0 0
120 1 120 84.2657122287058 112.29081416835112 -24.512539853895632 0 0 0
119 1 119 83.52130473214973 112.1487995132585 -20.70982040218563 0 0 0
121 1 121 81.01360907203573 113.77810430513125 -25.205140685554557 0 0 0
18 1 18 90.46636099916533 115.81575178115143 -21.43129454279069 0 0 0
122 1 122 81.13515985686024 116.61836861074312 -22.72022646729366 0 0 0
123 1 123 84.74126956802372 117.00773690799578 -24.126504802006455 0 0 0
124 1 124 83.63829333053097 117.22416769054924 -27.786635555054712 0 0 0
530 4 530 138.51882938803172 101.77742319781113 -20.646216064098162 0 0 0
135 1 135 71.80777301889016 123.13752761690263 -28.355106270094016 0 0 0
136 1 136 71.95170022609626 120.99225855421528 -25.272731851529283 0 0 0
137 1 137 75.20992970264939 119.72157982701471 -23.804019893867785 0 0 0
134 1 134 74.8124250214154 121.63805320594128 -30.166408213798512 0 0 0
133 1 133 77.6320242279786 124.34147855832155 -29.906727780371995 0 0 0
132 1 132 78.54704803291537 126.54133322749873 -32.86289781544557 0 0 0
131 1 131 78.78492749683743 129.6567586126806 -30.760006430027936 0 0 0
125 1 125 80.78966115083516 119.5162319299913 -26.770397334409722 0 0 0
127 1 127 85.88872042008423 121.76211319265657 -27.540916132957644 0 0 0
128 1 128 83.14762243909763 122.36997712461172 -30.10448641294614 0 0 0
126 1 126 83.03544217168078 121.92301021123407 -24.85077326132819 0 0 0
129 1 129 83.37128865571498 126.1378563575657 -30.21505630107409 0 0 0
130 1 130 81.25036111997079 128.35200105182784 -28.215604112219978 0 0 0
344 3 344 127.90632351185118 63.52928814506632 -15.09069120381884 0 0 0
295 2 295 94.01747673102113 85.82030154306898 -1.6958797776045371 0 0 0
492 4 492 113.49087416249374 80.72872748981334 -20.089467805157856 0 0 0
410 3 410 111.3756172652436 73.91791487736948 -5.467404714198416 0 0 0
308 3 308 111.43478159577272 78.83750084012154 -11.254601981201251 0 0 0
306 3 306 114.47808537923022 79.1366102507472 -15.827337557394024 0 0 0
307 3 307 114.83439537262578 77.63924525162494 -12.346813517248998 0 0 0
411 3 411 107.847859440426 74.06746765451183 -3.806493283556836 0 0 0
409 3 409 112.67715227279645 71.10094307302779 -3.365000365062493 0 0 0
414 3 414 108.93698294104657 79.28023561569593 -2.729902626145847 0 0 0
495 4 495 116.22150504770057 73.29620981503683 -19.616946332218117 0 0 0
505 4 505 127.39727115208575 82.01463447803945 -19.72033221832224 0 0 0
501 4 501 124.24135374609604 76.63279718016652 -19.8798473660751 0 0 0
453 4 453 133.56458334544257 71.07245098752556 -20.0066925016741 0 0 0
405 3 405 116.0468100495989 74.1288568658591 -4.771081235961854 0 0 0
500 4 500 120.42244469344857 76.30807682756003 -19.83891110320422 0 0 0
343 3 343 131.74216400800432 64.24146534607748 -15.698582488277557 0 0 0
342 3 342 131.7557248722612 64.21688328679029 -11.68236743227949 0 0 0
338 3 338 131.9369441925175 65.12812207784538 -6.012745473656441 0 0 0
346 3 346 123.400961211366 65.9884120449012 -12.680730552758112 0 0 0
339 3 339 128.77832432497783 65.41498916132146 -8.103810178246013 0 0 0
345 3 345 125.31924696960897 66.32929064115677 -15.874030229110549 0 0 0
455 4 455 129.9286767526059 67.54289502398989 -17.587697211821563 0 0 0
406 3 406 118.45325438587258 71.22088947975772 -5.222188867784082 0 0 0
348 3 348 120.57391323272782 71.93030086897404 -14.218507684723848 0 0 0
347 3 347 120.59659446953975 68.6684054312579 -12.239371663541915 0 0 0
349 3 349 120.96093259858942 73.64862801172264 -10.796944371882336 0 0 0
402 3 402 120.26415675506026 77.02372649622437 -6.445916532723335 0 0 0
350 3 350 124.38566237794277 72.01211666234082 -10.564471659661683 0 0 0
351 3 351 125.30398451884047 73.2595902283395 -14.070979516134576 0 0 0
340 3 340 129.86178097053408 68.99624129048712 -9.353969553341651 0 0 0
354 3 354 129.3725716505498 74.92045030176695 -11.492471800426927 0 0 0
353 3 353 126.35981561885743 76.43549915803352 -9.600413929383734 0 0 0
352 3 352 124.31796318108768 76.7385553465717 -12.938809944362658 0 0 0
355 3 355 129.2407021416265 78.09721701304349 -13.555243061747053 0 0 0
357 3 357 131.51087838654908 79.44467258847087 -8.583119487189174 0 0 0
356 3 356 128.41760630655804 80.41852842510554 -10.559596339761868 0 0 0
399 3 399 124.05004993275442 80.49524877909542 -4.666267954775048 0 0 0
504 4 504 124.32221852517522 81.20688642675564 -17.414585262315303 0 0 0
358 3 358 133.7801320951783 80.21298609440407 -11.768444324807934 0 0 0
401 3 401 118.61482583399412 79.65149821617733 -4.1197889421098495 0 0 0
403 3 403 121.43761660767 75.14751974088986 -3.442467781643467 0 0 0
337 3 337 131.50920118756613 68.42536330416486 -4.414553210621533 0 0 0
336 3 336 127.58773522272811 68.50327925894305 -3.6940028949907253 0 0 0
332 3 332 128.2926271220653 74.04308883049349 -2.309706659634761 0 0 0
400 3 400 121.47320035044504 80.36102729531527 -1.8657608286054552 0 0 0
341 3 341 133.3458738157649 67.65970112017006 -10.264695662076637 0 0 0
451 4 451 132.1198035566796 71.22097586543153 -13.918786654510924 0 0 0
454 4 454 133.83702499171622 67.50042532776517 -18.272931413924255 0 0 0
404 3 404 118.05128558098328 75.42804705008338 -1.6749172727043071 0 0 0
452 4 452 131.52836521095017 72.82900586631 -17.313465546040756 0 0 0
333 3 333 131.44459417418696 71.97890167420277 -1.578673326511048 0 0 0
450 4 450 135.75308510731548 72.3663283455072 -13.430230185421527 0 0 0
448 4 448 133.56423010607463 76.31855698077736 -9.82497394869044 0 0 0
449 4 449 136.89397479864428 74.58006357162381 -10.561647092665837 0 0 0
296 2 296 90.47850183837095 85.08909924038643 -0.6593257796190384 0 0 0
297 2 297 88.74092109394822 84.52755515792687 -3.9824410156654246 0 0 0
298 2 298 89.87793966756232 85.5550665413294 -7.3730247964994895 0 0 0
49 1 49 79.91555428260295 97.6603540648501 -4.22015494629586 0 0 0
197 2 197 90.0217304958599 92.52260368233885 -5.9186879289392085 0 0 0
195 2 195 89.88976276595334 95.21620632874681 -11.999110921776985 0 0 0
196 2 196 88.70635881346104 95.28186766586595 -8.228518318080813 0 0 0
194 2 194 92.60774949968379 96.80568426520507 -14.085055745005567 0 0 0
193 2 193 95.1669605336398 95.38513922844355 -11.21142425217552 0 0 0
190 2 190 96.71277035471128 93.07869821189081 -7.317418745990619 0 0 0
191 2 191 97.8017480972582 96.76395216131253 -6.5942679339540895 0 0 0
198 2 198 88.77795242368384 92.97192236900581 -2.2173842957066454 0 0 0
201 2 201 93.12245170434456 95.69334879652615 -1.576613694431455 0 0 0
50 1 50 83.54290414961329 98.73623588023013 -4.827389738886336 0 0 0
202 2 202 91.12204827323123 98.95049015187875 -2.453408856294779 0 0 0
309 3 309 112.32418877894933 81.9232867252928 -9.40478184466662 0 0 0
192 2 192 98.42026963477291 97.08591762641797 -10.515000071285666 0 0 0
301 3 301 115.07994812383419 87.01575115580174 -19.46686875284667 0 0 0
305 3 305 113.40028435772575 82.37609491781613 -14.144713512459289 0 0 0
310 3 310 111.57905965625665 85.73438836195959 -9.939507416936792 0 0 0
312 3 312 110.96420734928843 89.87505042964374 -6.585201107386708 0 0 0
313 3 313 110.30847258112448 86.68749737375525 -4.466858102554564 0 0 0
189 2 189 99.82958642363573 92.13657034136445 -8.91115363466873 0 0 0
188 2 188 102.01954377103408 94.06264862671624 -6.578195849753376 0 0 0
311 3 311 113.94498346688707 88.16773092082029 -8.294544624890953 0 0 0
302 3 302 115.42443609950526 87.8253179829053 -15.696508698107255 0 0 0
187 2 187 100.4896250287479 92.13267432513558 -3.5835247346713235 0 0 0
184 2 184 105.04340307290407 96.10951222955147 -3.368528031901735 0 0 0
314 3 314 114.09090433439742 86.45572555740229 -3.698275496650861 0 0 0
315 3 315 114.1203658642256 90.32460092750172 -2.6974037702127824 0 0 0
185 2 185 106.51257373498517 92.68025878384496 -2.3734766999458206 0 0 0
186 2 186 103.46618587414798 90.25396271571954 -2.185408391606757 0 0 0
1 1 1 105.16004174813929 99.58845769436233 -8.638497514615652 0 0 0
304 3 304 116.8585902732183 82.99972809206103 -12.498150035829509 0 0 0
509 4 509 130.0199792620359 87.67363972420057 -18.878388016210966 0 0 0
303 3 303 118.51416721932078 86.05919843426959 -13.998517310832128 0 0 0
398 3 398 121.88730251337414 82.75927150029263 -6.92980203695032 0 0 0
359 3 359 131.9385967528595 83.53122522479302 -12.184990925890832 0 0 0
360 3 360 132.81373167775462 84.42835031668437 -8.490529874032122 0 0 0
510 4 510 127.22628351508808 90.25764218895593 -18.031593089775008 0 0 0
507 4 507 125.20193148143811 86.14463078072052 -17.103238795956972 0 0 0
508 4 508 128.93174252812253 85.31313565230043 -16.331385862247654 0 0 0
514 4 514 128.51324339724277 95.35986562425005 -15.28812674966213 0 0 0
394 3 394 123.19442999451937 88.91156900325916 -6.543395796305888 0 0 0
395 3 395 125.6588676445427 86.21833394467687 -5.931918531630373 0 0 0
511 4 511 128.3688627999417 90.49651173471852 -14.303870404816939 0 0 0
391 3 391 128.2980722826062 92.49164425177328 -6.647334704153131 0 0 0
513 4 513 130.7797158883026 93.78559940720439 -17.990135799361905 0 0 0
515 4 515 131.57194827918164 95.550088358768 -12.882459712392997 0 0 0
512 4 512 132.03943248903204 91.00265851290553 -15.756308990636901 0 0 0
517 4 517 131.53300493085203 99.45457052708505 -16.76935250485128 0 0 0
387 3 387 132.51722552869194 93.03036914903703 -4.999097326679004 0 0 0
390 3 390 127.39376005414687 95.23069893879467 -3.8700375890915213 0 0 0
386 3 386 132.18826845774612 96.6345458497902 -3.9752880558513466 0 0 0
397 3 397 120.53273028895025 85.11843775321452 -4.284567380990426 0 0 0
392 3 392 127.94926914725274 89.98879936498717 -3.9217092145787857 0 0 0
393 3 393 124.19947522234726 90.47177658942113 -3.1270664519778277 0 0 0
396 3 396 124.03135222500744 85.48347267020254 -2.520492270136627 0 0 0
516 4 516 134.03381628343925 96.63796180951702 -15.640860636173525 0 0 0
363 3 363 134.88681171017032 88.9317278726954 -10.524467687139612 0 0 0
361 3 361 136.3756069072177 83.66611390221773 -9.495333417296992 0 0 0
532 4 532 139.52241825313803 97.34417442650552 -17.15035207698838 0 0 0
362 3 362 136.51496168462504 86.07505630529357 -12.483708547200168 0 0 0
383 3 383 136.39493655202355 97.74649975605831 -5.887767400135669 0 0 0
364 3 364 137.54636200195975 88.44792290525255 -7.870674903855165 0 0 0
373 3 373 147.08332733583777 98.20156048189914 -12.370122681836264 0 0 0
369 3 369 143.6992445999253 93.47901167642097 -11.197783715942611 0 0 0
366 3 366 139.0557920953741 91.3491225550982 -12.237577004239048 0 0 0
365 3 365 140.25095827314954 88.2826442617123 -10.533253331202868 0 0 0
367 3 367 138.62200377221492 93.14749248475759 -8.678595746035354 0 0 0
368 3 368 142.29955310571148 92.36619757217558 -7.958532159131191 0 0 0
372 3 372 147.5908936123153 96.22182911606761 -9.104369937393297 0 0 0
370 3 370 142.17020595786903 96.89821932828457 -10.55477277167869 0 0 0
371 3 371 144.23071147767135 97.08363746600553 -7.343539775627722 0 0 0
384 3 384 137.22929692444995 94.39274581792895 -3.6763233394475576 0 0 0
145 1 145 64.38511518522694 102.3616979081919 -13.659069294999647 0 0 0
147 1 147 62.86487704121781 103.32198191787666 -6.874812311585861 0 0 0
146 1 146 63.534397088561434 101.33746144247698 -9.929140742663224 0 0 0
148 1 148 65.24827270084515 101.73710619392989 -4.477171689518739 0 0 0
114 1 114 77.61877338831177 106.19388178059522 -19.560519770554958 0 0 0
140 1 140 75.06760459429549 110.59088140039046 -18.66350760499249 0 0 0
141 1 141 71.76565477762156 108.59839859953708 -18.70628459713028 0 0 0
143 1 143 67.44271526632981 106.05789570036353 -16.2418071398777 0 0 0
113 1 113 80.23991835937231 103.30168491098692 -19.24622524873 0 0 0
149 1 149 68.4224355670901 99.45613124783294 -5.194954451632336 0 0 0
144 1 144 66.1113604756006 105.43645002550018 -12.558617323272351 0 0 0
142 1 142 69.2379539979869 109.34545470313832 -15.78946766149691 0 0 0
109 1 109 74.90232886480878 106.91591560006712 -9.182690403084434 0 0 0
110 1 110 74.8881973697538 106.17307557096508 -12.881881727509864 0 0 0
37 1 37 72.06459337434445 112.19626959302384 -1.1154668728796888 0 0 0
108 1 108 78.07185351004351 104.82691068552738 -8.07395231003769 0 0 0
111 1 111 77.22022328703135 103.20200002733557 -13.599670996507557 0 0 0
106 1 106 79.17347421694183 109.61352715169242 -10.568113504152745 0 0 0
107 1 107 79.95472566096568 105.99367593910299 -11.200373247394104 0 0 0
105 1 105 79.83004778674645 109.34480858004814 -6.956070594585077 0 0 0
115 1 115 79.99294033366834 108.28395120741376 -17.488519540523175 0 0 0
33 1 33 76.08413072136459 116.43783812768098 -2.1240890849565806 0 0 0
112 1 112 80.77066617226934 103.63189764639672 -15.333345886795911 0 0 0
15 1 15 90.54218911445967 111.04263537825584 -19.61410086000982 0 0 0
116 1 116 83.10347122494277 107.12343141831519 -19.68391678293946 0 0 0
14 1 14 94.33554850622377 111.57015005179741 -19.799355550736976 0 0 0
17 1 17 92.81849537514599 115.84894588745179 -18.6910921930316 0 0 0
8 1 8 91.15765494999549 100.60915681111442 -10.95649692298289 0 0 0
9 1 9 88.09164688678226 102.63243695810277 -10.903471855475427 0 0 0
10 1 10 88.42838361318671 103.00766594710656 -14.94028310824135 0 0 0
7 1 7 92.79194504846389 103.35688976040842 -13.358252131761649 0 0 0
12 1 12 93.13792234511124 107.48977025256289 -17.06955823050887 0 0 0
16 1 16 90.48569652514057 113.45894782275485 -16.554249326456205 0 0 0
11 1 11 89.74356111186404 106.38774897476101 -15.510535366852247 0 0 0
51 1 51 82.55122167695289 102.37618312280401 -5.197187666201637 0 0 0
6 1 6 92.30700852027346 106.4290952079475 -11.18339642969235 0 0 0
104 1 104 83.23399108961038 107.53471751566394 -7.4383750992956355 0 0 0
103 1 103 84.28289526146392 109.94190090669001 -10.071133701205417 0 0 0
100 1 100 88.53512513724385 110.92221808494743 -7.19235501851074 0 0 0
101 1 101 85.17119162319477 111.55961198542374 -5.047621089620639 0 0 0
102 1 102 83.38035846527872 113.00872697005711 -8.098677899682059 0 0 0
99 1 99 88.41331237752337 113.98419520203305 -9.563032340162648 0 0 0
96 1 96 92.87201025381827 114.97457320466978 -7.900555278616443 0 0 0
97 1 97 90.58768911153406 114.90983134974697 -4.748490399883114 0 0 0
5 1 5 95.90003175070619 107.33528726438098 -10.19859015886489 0 0 0
13 1 13 94.83228975097363 110.66977647877243 -16.047742991785956 0 0 0
54 1 54 86.40227703261128 103.794245454575 -2.138461070946086 0 0 0
52 1 52 80.99481504507924 102.50011385529203 -1.7296364913773115 0 0 0
55 1 55 84.05727565524174 106.68940306721962 -1.5029165828877964 0 0 0
205 2 205 95.33350441383212 101.51925227739615 -2.782180121311442 0 0 0
209 2 209 97.2655512930669 107.8650790150811 -2.3239125222455335 0 0 0
4 1 4 97.8324279043073 104.21614635527285 -10.893206858260186 0 0 0
98 1 98 87.6480003731569 116.50881552098288 -6.6299590106661235 0 0 0
3 1 3 99.214011811935 103.23682963979985 -7.53606528169439 0 0 0
2 1 2 101.49785662902627 100.15204100663192 -7.74582594891491 0 0 0
518 4 518 131.0591488564661 100.21476950987224 -13.045213349826597 0 0 0
521 4 521 131.94242927194506 104.96093540796298 -14.731500069208012 0 0 0
522 4 522 132.80705778496105 105.38582864173375 -11.090750513939401 0 0 0
520 4 520 134.66774210358088 102.47021987163087 -15.851736202246835 0 0 0
528 4 528 142.07809671989725 106.1883173990742 -19.255114148802605 0 0 0
531 4 531 141.684183777317 99.76744689592788 -19.262209184381476 0 0 0
529 4 529 138.9759301462501 104.39939393311016 -17.853844533499963 0 0 0
527 4 527 143.32708656881408 109.08013816001096 -16.89504771521056 0 0 0
519 4 519 134.94541347749777 100.70965921202276 -12.567200491838774 0 0 0
523 4 523 136.58127871997277 105.78546157104503 -11.068831918309272 0 0 0
382 3 382 137.29273547014 99.97685973022853 -2.9837583916817554 0 0 0
380 3 380 143.10064022796743 100.00891032044763 -3.266587670938245 0 0 0
374 3 374 145.6857316002268 101.55985144233657 -10.738415921830489 0 0 0
375 3 375 148.02942648381267 103.7993782296269 -8.962364296781418 0 0 0
526 4 526 142.69875502857084 107.0003365341151 -13.75661553472246 0 0 0
524 4 524 137.83962820863567 109.11227539355289 -12.651938688470148 0 0 0
377 3 377 142.94343943935814 105.84915238348134 -6.207635601044966 0 0 0
376 3 376 145.8748164921101 106.88836095908903 -8.579734529205005 0 0 0
525 4 525 141.17366157438116 109.20215234194428 -10.989974118712665 0 0 0
378 3 378 143.5181765568343 106.50109509512161 -2.6011733645154322 0 0 0
379 3 379 142.07292601667822 103.18834842474918 -1.5874263900252477 0 0 0
29 1 29 79.80485820154715 120.7759280388222 -3.240147913740151 0 0 0
19 1 19 87.89063503273385 117.66551926426344 -19.574238797497213 0 0 0
20 1 20 88.32172365803684 121.46629272617817 -18.539263079649864 0 0 0
30 1 30 80.92672407858788 117.25094104471479 -3.420221737359729 0 0 0
24 1 24 83.97533063042512 118.8598749981504 -11.433434388918826 0 0 0
93 1 93 96.485596879173 118.47078920590613 -4.547578353385983 0 0 0
95 1 95 91.89788938478154 118.89220577245499 -7.8672977810010805 0 0 0
94 1 94 92.59871908711536 118.85957983373207 -4.0803336442624465 0 0 0
21 1 21 89.7946645004581 121.63830197410364 -14.765654224728898 0 0 0
23 1 23 84.21831744233336 120.68372577279482 -14.837743699985598 0 0 0
25 1 25 81.86406664389834 120.09954521495874 -8.373044821039654 0 0 0
22 1 22 86.66625749976853 123.3656845245177 -13.70094407463587 0 0 0
26 1 26 83.54081022647593 122.06649905526913 -5.663407892113048 0 0 0
90 1 90 91.99462110058774 123.08602971958655 -2.6648214682401004 0 0 0
91 1 91 93.95391158545512 123.35852086926721 -5.940919092924389 0 0 0
27 1 27 85.40331601465695 121.0480107348906 -2.605677857582973 0 0 0
88 1 88 97.37573976882551 124.6051212310066 -2.5285253533804832 0 0 0
92 1 92 97.28049911713214 121.51798802003835 -6.583436812689078 0 0 0
444 3 444 109.3788267309609 64.5143488839936 3.410264142001729 0 0 0
445 3 445 106.37696172432688 67.12792871152254 2.869076973500548 0 0 0
290 2 290 98.59667154523167 80.86935264000721 12.583957192452583 0 0 0
289 2 289 97.08319720101757 81.69064726489083 16.034151826553263 0 0 0
294 2 294 96.87560972197416 85.24179171208925 0.7904311599543641 0 0 0
291 2 291 96.5808820586435 81.14451695991616 9.226832370447807 0 0 0
292 2 292 98.23487172558252 81.25842209750101 5.7983815948106505 0 0 0
413 3 413 111.6072547517874 77.07564040225483 -1.4231225681868254 0 0 0
447 3 447 107.42840818457124 73.54571113173917 3.9039909669051513 0 0 0
412 3 412 109.26377544135075 74.25417138687142 -0.38011973057273085 0 0 0
446 3 446 105.8415805529679 70.18229700232425 5.087482873756812 0 0 0
443 3 443 112.33741324259258 65.64711932580113 1.090274728445027 0 0 0
442 3 442 111.3703870158748 69.41527039778671 1.6572866221903524 0 0 0
441 3 441 111.18089243924774 68.57628152061329 5.528907550402852 0 0 0
415 3 415 106.90178061699945 78.49387301897518 0.4055785905340033 0 0 0
438 3 438 114.22537988795011 74.85439421502123 6.115191326592166 0 0 0
437 3 437 111.54818906602095 75.60098517626109 8.805938499825904 0 0 0
436 3 436 108.73552673722162 78.30113411941834 9.204419204178441 0 0 0
416 3 416 109.61992020603088 79.4023056501541 2.8098389930139325 0 0 0
435 3 435 109.46525299366844 80.10980737480816 12.398461573278562 0 0 0
408 3 408 114.90121319977379 71.25337787953632 -0.2052086126625764 0 0 0
439 3 439 115.78983872470258 71.41620238493645 6.943000269294703 0 0 0
440 3 440 114.93499657579588 67.85684730856677 5.609372250874087 0 0 0
329 3 329 130.79226526220586 78.34780555332038 -1.469674683207853 0 0 0
407 3 407 118.36288530811375 70.437245059548 -1.4376312881610782 0 0 0
335 3 335 126.90618224317524 68.8434052570606 0.08251771604989973 0 0 0
328 3 328 127.45477184191101 79.38383366807474 0.29595672309399607 0 0 0
334 3 334 130.00609644911515 70.50639701568832 1.500755079487482 0 0 0
331 3 331 127.68209302932573 74.94450262547545 1.3376024397687911 0 0 0
330 3 330 131.33397775718575 76.25712274028527 1.778101251436239 0 0 0
327 3 327 129.37142440846313 80.43473080119423 3.4555493450142785 0 0 0
48 1 48 78.58425059437512 96.6932036355378 -0.708007897680227 0 0 0
46 1 46 78.6876901039612 96.91430411420173 4.983637340227928 0 0 0
45 1 45 78.94385888479647 98.71972655710026 8.477770123412142 0 0 0
199 2 199 87.75748926528595 95.96176924231162 -0.25540903869107234 0 0 0
263 2 263 91.74075972311668 85.77625973563906 11.944373883724925 0 0 0
260 2 260 92.10147193283395 86.99680269590645 6.426763288360877 0 0 0
262 2 262 88.34838039953907 87.31258623224565 10.791479746300627 0 0 0
264 2 264 93.1691856416021 89.09722480978864 12.577770607419781 0 0 0
261 2 261 89.99764294085169 89.80693391342707 8.337824104802548 0 0 0
256 2 256 93.69296624045619 91.08596794715156 6.399660369369281 0 0 0
200 2 200 91.14075787594588 95.47958088087434 1.6332762249126096 0 0 0
253 2 253 94.49130136659656 96.10529689390769 5.508008161011484 0 0 0
159 2 159 84.29739641182587 94.7262328820285 11.175061924808421 0 0 0
158 2 158 85.66705096929326 96.3092852732275 7.89107375268311 0 0 0
257 2 257 95.23070894799352 90.40251395539029 2.890442026928979 0 0 0
47 1 47 81.11338610372934 97.00426244943777 2.1691155132310898 0 0 0
252 2 252 94.93004653418721 96.49195612193152 9.325894686970877 0 0 0
265 2 265 90.17213806493852 90.61930834411791 14.7117435745039 0 0 0
259 2 259 95.8125157172379 86.48627683239097 7.145499026744725 0 0 0
255 2 255 97.17252298955056 92.00314296091506 7.664586089698891 0 0 0
254 2 254 97.87293169918033 94.4107623876519 4.763291499990111 0 0 0
258 2 258 98.02192106476757 88.19554288579847 4.640020068784958 0 0 0
160 2 160 86.50920827003816 96.66216297421171 13.644372478886396 0 0 0
157 2 157 82.7917022831947 98.63826379423449 7.258232020154734 0 0 0
293 2 293 96.10372104077368 82.18117528352504 2.7370879400751025 0 0 0
434 3 434 108.85821380933133 83.65899765420406 14.154950232085625 0 0 0
251 2 251 98.75546190244776 97.3987398785492 8.841128713257943 0 0 0
316 3 316 110.82583593448699 89.8812326088585 -0.7518664120681618 0 0 0
419 3 419 105.86208276464986 82.63158947977446 4.646390718965123 0 0 0
417 3 417 110.13696125612806 82.74916764164074 0.7993931437619209 0 0 0
420 3 420 109.13230238147933 83.47867215192794 6.48214698752175 0 0 0
418 3 418 106.61238123842055 84.0863220391847 1.1337017560312381 0 0 0
183 2 183 102.49421114514975 95.90117047951804 -0.5316028857879698 0 0 0
422 3 422 105.82984459452615 87.77478318793112 6.556673518503227 0 0 0
421 3 421 109.23757445389755 86.81710717744471 4.788431127416833 0 0 0
423 3 423 107.60965927316778 86.60727115011701 9.903991406641255 0 0 0
424 3 424 110.7375683274459 88.996423796479 9.08629878270662 0 0 0
426 3 426 106.33378768049589 91.24620922059653 11.424343398115523 0 0 0
425 3 425 108.35566375070115 91.92242323183872 8.347485328634901 0 0 0
182 2 182 104.94709903626348 94.44155025032444 1.9230071436171297 0 0 0
181 2 181 107.49424212561642 97.23137402970333 1.039029273912892 0 0 0
317 3 317 113.293295420711 89.22535116265634 2.002247512605654 0 0 0
318 3 318 115.86984651269249 92.03286567730659 2.8272447731841504 0 0 0
427 3 427 107.36942076901707 91.8890356777796 15.103434858270237 0 0 0
431 3 431 103.268092912211 86.81307181470063 15.073289191210716 0 0 0
428 3 428 107.82236699610665 88.68329565877092 17.378258334486794 0 0 0
432 3 432 104.44638517070808 83.74457246665061 17.13035941523433 0 0 0
178 2 178 107.8854142878848 98.12556791663617 5.701039029380854 0 0 0
179 2 179 103.94007684828762 98.26066595638457 4.9159110402155335 0 0 0
174 2 174 105.83576225496716 98.20288456733508 11.681738040584555 0 0 0
173 2 173 103.21151923600156 98.57944148617922 14.27899283541152 0 0 0
388 3 388 132.0402356178966 91.4363111822649 -1.6210572228071751 0 0 0
389 3 389 129.0233682225449 93.68562661677663 -0.8239687731974551 0 0 0
326 3 326 132.1672939205 82.62218737640833 1.6762263825745465 0 0 0
323 3 323 124.40236165889499 83.79300870673866 4.144701157196379 0 0 0
325 3 325 129.41431318299396 84.30261822498029 -0.44723158215081166 0 0 0
324 3 324 127.70110969072807 85.49826347682597 2.8477177138927545 0 0 0
319 3 319 119.43099142623527 92.19171904902032 1.6818983942336003 0 0 0
322 3 322 121.2661342631548 85.38557179037437 2.83412193386185 0 0 0
321 3 321 118.96100465294198 87.67220269000019 4.981576247472224 0 0 0
320 3 320 120.87810099375756 90.94873239208172 4.907001306209573 0 0 0
385 3 385 134.72621032769257 95.86311278969332 -1.1622161330501615 0 0 0
381 3 381 140.3122195714486 98.10454110207579 -1.6543596739653237 0 0 0
34 1 34 77.68625482143669 113.30616986241331 -0.4005449481988179 0 0 0
38 1 38 74.49959278525303 109.64170723407561 0.4209567413030891 0 0 0
36 1 36 72.50519318505872 115.16654989477088 1.3381878328811734 0 0 0
44 1 44 77.76275741525065 101.83766893715384 6.399709990691574 0 0 0
35 1 35 75.98341070980797 114.30833476213812 2.9040481167378895 0 0 0
41 1 41 76.43516007295902 105.2062376052885 2.6484235523661357 0 0 0
40 1 40 73.65224793561636 105.9978894081038 5.0636809880306 0 0 0
39 1 39 74.16780157632057 109.79550674215007 4.215147198112511 0 0 0
43 1 43 77.7305123121266 105.3005989633186 7.925827977757902 0 0 0
150 2 150 78.17717689902963 110.88265516836056 10.19367435760999 0 0 0
42 1 42 78.92778122418582 107.32889809067798 4.815827149461333 0 0 0
151 2 151 81.14027886219982 110.96186034942947 7.8572294948393555 0 0 0
206 2 206 93.4925554932883 104.45720427429632 -1.2564527844790017 0 0 0
204 2 204 95.37770244456111 99.62403647474974 0.42187888274720253 0 0 0
161 2 161 87.17545337098795 99.68084399389478 15.946447310004613 0 0 0
156 2 156 83.43900195969296 100.25128952531074 10.652157842307119 0 0 0
203 2 203 91.80837178826532 100.54220277977298 1.0119614133972572 0 0 0
155 2 155 87.21037326041332 100.16582577478322 10.256010454087058 0 0 0
53 1 53 84.24292852006259 101.44934386759162 0.017490540699353664 0 0 0
58 1 58 88.31632188598394 109.2608145155687 0.0808253326255795 0 0 0
154 2 154 87.78542126855011 103.84660997819445 8.980119647360487 0 0 0
57 1 57 88.0666406650511 106.02715023647407 2.081832150124775 0 0 0
56 1 56 84.39543907656888 106.20728003917513 2.295910801187271 0 0 0
153 2 153 84.4769657505205 104.74770334322865 7.27913032430256 0 0 0
61 1 61 92.07868465431814 110.73804781561363 3.0198650578625137 0 0 0
60 1 60 89.02593777637517 109.95197476787405 5.244040673926481 0 0 0
152 2 152 83.62561687102163 108.11511920952402 8.986290746314484 0 0 0
59 1 59 86.59866516736525 111.33752176098271 2.590842698316739 0 0 0
64 1 64 94.03575083884904 113.57818770127602 7.505112082629658 0 0 0
62 1 62 91.13397615730987 114.53906399141854 2.8643050393643263 0 0 0
63 1 63 90.31119631628165 114.2480118237854 6.639742509903833 0 0 0
249 2 249 95.38238377147432 101.7954827535589 8.655462031886284 0 0 0
207 2 207 95.61159392896732 104.89240826767497 1.9402547241780448 0 0 0
248 2 248 97.14562720882331 101.37917620052718 11.999353986002902 0 0 0
210 2 210 96.37101056865033 109.39247341166916 1.0544335421077207 0 0 0
245 2 245 97.02998617226045 106.49362847831708 12.167729273769757 0 0 0
162 2 162 89.57830544428502 102.55295415668272 16.443631784544706 0 0 0
250 2 250 97.93090293470549 100.16044768942697 6.300396678311134 0 0 0
65 1 65 94.96691860734173 116.15514198211429 4.729225547619727 0 0 0
165 2 165 93.42403579861708 99.7398730008813 17.093604337015414 0 0 0
246 2 246 98.50572356766138 105.40687406155855 8.72344427491772 0 0 0
242 2 242 99.20363355570059 111.81204745014028 11.442879472166751 0 0 0
208 2 208 98.9762078439667 105.0726436061446 -0.30723986804421793 0 0 0
213 2 213 99.3158485326892 113.88329804911449 -0.6625503847757853 0 0 0
212 2 212 101.26304384299746 110.62199015946535 -1.039901812176832 0 0 0
180 2 180 104.83261000033148 99.96135630157112 1.6293575477975017 0 0 0
175 2 175 107.1101663066815 101.46053712414655 9.863167744140064 0 0 0
177 2 177 108.2105775791804 101.94127208772439 4.877623397081456 0 0 0
247 2 247 100.59049209434507 102.64957978558905 10.44524585361654 0 0 0
176 2 176 105.12749036254144 102.93789125109652 6.907860951324992 0 0 0
244 2 244 100.52143377620429 106.63707395351669 13.603694497469005 0 0 0
211 2 211 100.04885887866027 109.15679224705202 2.3050633128328166 0 0 0
243 2 243 101.41797116023211 108.8676652206502 10.794303959619405 0 0 0
239 2 239 105.50749379001044 110.51865441947956 10.923567163546366 0 0 0
240 2 240 103.85584514931433 110.81707576218898 14.482810181987995 0 0 0
215 2 215 104.11806499827085 113.58462234784108 1.8880220997969306 0 0 0
241 2 241 100.4647630411257 112.80360379143515 14.924555644050004 0 0 0
238 2 238 103.58890293260843 113.64595122096304 9.472822299879976 0 0 0
214 2 214 100.41304498204322 113.97378249002367 2.98006588118019 0 0 0
236 2 236 107.82779095394746 114.69511992751796 12.558858563272786 0 0 0
237 2 237 104.07970935417828 115.70044064555469 12.78721583468922 0 0 0
216 2 216 103.8492917012897 116.12981704005414 -0.9439743325550023 0 0 0
235 2 235 107.96925447776626 116.09327625982998 9.101234611834153 0 0 0
32 1 32 77.5254082592033 118.66265111340593 0.589081261911224 0 0 0
87 1 87 94.60191203344387 127.36198166418185 -1.706619055003668 0 0 0
89 1 89 95.22703877390927 121.99424641681712 -0.7206873707566144 0 0 0
28 1 28 82.26765863043522 122.2608510464533 -0.6354491806234175 0 0 0
31 1 31 81.03983842054171 117.18276521793838 0.37744672872460405 0 0 0
67 1 67 93.88837089755332 118.01700326079856 9.754478163282645 0 0 0
66 1 66 92.78660805105316 118.9479613177751 6.229458895999087 0 0 0
70 1 70 94.83223285183642 123.19166454498131 9.7454222034654 0 0 0
86 1 86 94.22642474029632 126.19301163894708 1.8556300247136857 0 0 0
83 1 83 95.62193969424537 131.52753362582897 2.5267498926071306 0 0 0
69 1 69 96.2846400052881 121.90300522677192 6.531953928992456 0 0 0
68 1 68 97.62619611336054 118.7059972816473 8.390291854720582 0 0 0
71 1 71 98.0748609231157 122.2997438819436 11.68275022411351 0 0 0
82 1 82 97.4871752953523 130.38220044568934 5.599940558810492 0 0 0
74 1 74 98.68678374138916 127.17236559268271 12.944218120063113 0 0 0
73 1 73 98.50002150846703 127.1224950700428 9.179261485791065 0 0 0
85 1 85 98.21990677644733 126.58410536292108 2.2132826958124676 0 0 0
84 1 84 98.26019247790168 129.89942423310367 0.43284188062787987 0 0 0
220 2 220 106.34706707440212 121.47991122662887 -0.2921491301860862 0 0 0
72 1 72 100.36027988839923 123.81646957882674 9.055713454061681 0 0 0
81 1 81 100.63745098045864 131.8937214876145 4.052742336365055 0 0 0
218 2 218 104.89782575211288 118.24591836026411 4.077122799264729 0 0 0
219 2 219 107.549552479358 118.41892868164224 1.4541322849694422 0 0 0
217 2 217 102.20289110444101 118.76874650161982 1.430093099725765 0 0 0
232 2 232 112.0517756986495 118.44100675606256 11.16642001743677 0 0 0
223 2 223 110.73788331377199 123.38942855785295 0.9831081383502194 0 0 0
224 2 224 109.14722548009185 126.81997420573002 1.5956252541283276 0 0 0
221 2 221 105.92812626119051 123.1812215667116 3.2018944429093774 0 0 0
234 2 234 106.51416639651956 119.42867519388453 10.137605695590398 0 0 0
233 2 233 108.99099922283587 119.81126996699109 13.181240722199659 0 0 0
75 1 75 102.5356222280842 126.61020251637562 12.734837513050918 0 0 0
222 2 222 109.40591702760095 122.09161929491889 4.167487950777479 0 0 0
231 2 231 111.09128169459444 121.10449069396857 8.48476579320853 0 0 0
230 2 230 110.81545770371451 123.8171718062765 11.412846624240748 0 0 0
225 2 225 110.6196756976777 127.25306338926437 5.02579578325521 0 0 0
76 1 76 102.87567677215915 129.4508783415074 10.132909510376987 0 0 0
229 2 229 114.16304854006655 122.60401504558537 12.611570643239546 0 0 0
226 2 226 114.28997132800627 127.91417664529716 5.4821739286035 0 0 0
227 2 227 114.72322640987532 126.70638853848534 8.884906613182176 0 0 0
228 2 228 115.8432398739595 122.85970193920569 9.169176271071937 0 0 0
77 1 77 102.571422349122 132.89472471830643 11.631337772026217 0 0 0
79 1 79 97.68830531825296 135.09067221374326 7.608265951124509 0 0 0
80 1 80 98.83906598960752 135.39549877971615 3.9379035969764162 0 0 0
78 1 78 101.4695576165908 134.87315555278332 8.617705983481796 0 0 0
266 2 266 90.2911155355355 87.5146213590756 16.88589450321917 0 0 0
268 2 268 93.0995805234704 91.75299593074674 18.31502881447388 0 0 0
270 2 270 92.60878937713528 88.27899268412355 22.50184690251592 0 0 0
269 2 269 90.25289271077655 90.55337055574795 20.602880532565354 0 0 0
273 2 273 91.52476042479137 91.5129814619533 27.07892091294911 0 0 0
272 2 272 92.65410298435854 93.56500091986312 24.03289381220673 0 0 0
267 2 267 94.10275657757042 88.12692594016336 17.422216930396676 0 0 0
277 2 277 93.73064985313263 93.36923604799446 32.422141449495996 0 0 0
271 2 271 95.27792864699042 91.20385183673189 22.608982946532873 0 0 0
274 2 274 95.19494445596332 91.29874731716761 28.17520920861914 0 0 0
276 2 276 92.49993671165983 95.80574614093226 29.644040448788108 0 0 0
275 2 275 95.8546694130854 95.14879542023608 27.920808211629392 0 0 0
287 2 287 98.48020103099482 86.62324986885089 20.517857370507443 0 0 0
278 2 278 95.96170909009427 95.20910174663517 35.15285858693815 0 0 0
282 2 282 97.82324958591217 88.82686814531185 33.66218429137797 0 0 0
288 2 288 99.39832747802144 83.74084087532658 18.231498068020304 0 0 0
164 2 164 91.06775352108122 98.42698373139844 19.65852521949566 0 0 0
168 2 168 97.9900110912064 99.1003113791722 21.045161759609112 0 0 0
433 3 433 108.00289729131319 83.24834421307254 17.86910694602188 0 0 0
430 3 430 102.58870056565827 90.0082680914558 17.16741883400315 0 0 0
283 2 283 98.09897384805677 85.27097108574198 31.930450497965648 0 0 0
286 2 286 101.22400573261105 87.2115329814207 23.064788386308017 0 0 0
284 2 284 97.47498745277447 85.11028531802538 28.045932112885772 0 0 0
285 2 285 100.01618023623142 87.77221078756779 26.844916999091083 0 0 0
429 3 429 105.133652929767 89.60116571984786 20.12208530494283 0 0 0
279 2 279 99.66511702073156 94.15722280697337 34.84947812544434 0 0 0
172 2 172 103.784882353886 97.00078676816464 17.800643466139828 0 0 0
167 2 167 94.96440696574331 100.83569250246804 22.406281488685778 0 0 0
166 2 166 94.58034466778764 102.75819737523435 19.0201809629034 0 0 0
163 2 163 89.17898991694052 101.77292279086498 20.1624819127911 0 0 0
171 2 171 106.17282829365855 100.02030110491093 18.348288793698128 0 0 0
169 2 169 101.59151558295616 100.49759936813425 21.38289532708878 0 0 0
170 2 170 103.04378043167007 102.5120839249675 18.496368193070232 0 0 0
281 2 281 96.55817604126747 90.08394569555807 37.031725785880866 0 0 0
280 2 280 99.78703553892036 91.82419994319959 37.90735624373768 0 0 0

Velocities

594 -0.0006492550950784504 -0.0009564182513759605 -0.0014918394536221847
587 0.0020303431231232013 -0.00010092857063184571 0.0007077071123786139
590 -0.0022959288821091006 0.00351813566084388 0.001804750378753316
588 0.0016518152411179028 0.002945424501634831 0.0007368812069732512
589 -0.0005523875213129721 -0.0003946270771239112 0.0011106305438103366
592 0.002931369255875796 -0.0006821785562866392 0.0007209375624702671
593 -0.00014967662276105497 3.608615229612965e-05 -0.0029556589534902706
591 -0.0010827921110505298 -0.00322745869160956 8.427068672148221e-05
582 -0.00319330719100586 0.0017067897538905095 -0.0003509423148175406
583 -0.0020486673866203084 -0.0002196086144643389 -0.0009254581997560449
579 0.0009987879074217258 0.0014891553272605397 -0.0006739635989436855
586 0.001695744136331391 0.002033685816560315 0.0005699150330336627
581 0.003415637939629309 0.0025892217176394575 -0.0012641100467867313
584 0.0007354540034544907 -0.002269242668221532 -0.0014360259312234688
580 -0.0020876440475016923 -0.001432433334526076 0.00023226278662796975
585 -0.00026080916494470837 0.0015933327300958894 -0.00060952241450126
577 0.001289737900053735 0.00019278830116977185 -0.0006533959084973966
575 0.0013933356329192661 -0.002396157242110478 -0.002849239632110289
572 -0.0013685433878593133 0.0020183201919851887 0.0013642765001219922
578 -0.0012646773157146086 -0.0011795343435449129 0.00036127090014576073
576 0.0015570177339097099 0.0011736153219371976 -0.0018120929228430261
493 -0.0008604804929545162 -0.0010637262057390162 -0.001960545770921721
494 0.0011086205880713835 9.415310396836784e-05 0.0006384277635507904
596 -0.001306162787559713 0.0010191200230192765 -8.128846159963362e-05
595 0.0009597561101733291 0.0008600969371301362 0.0029358178287756955
560 -0.0010063307185440517 0.0002467386204802033 -0.0005532262326494701
488 -0.0001354393443397845 0.0009554714936373706 -0.00023831311018721103
561 -2.1288401756581186e-05 0.003515600491236347 -0.004451898672409354
499 0.0011275286529752674 0.0009865186685416498 0.0026277557000867983
557 0.0017751910929092588 -0.0004629292232903804 -0.0012277304627930695
556 -0.000540334581027476 0.0009160195071354559 0.0002835188602666234
562 0.002657805087627139 0.0005989280363863068 -0.0017269782898328152
555 -0.0016771221592406477 -0.0024272717921345432 0.0007483264135465152
558 -0.00025618880704855187 -0.0015865206147713227 0.0012545176668052331
498 0.0015914338817861582 -0.0004763835596974734 -0.0026523484619573215
554 0.000645135357689321 0.0017647301366960021 0.0008100927268847614
559 -0.00030830223093004504 0.0008597379388770505 0.0013114817386738048
550 -0.0007893934891300022 0.003585664876690366 -0.0016502855081788421
553 -6.096925140092657e-05 -0.0005474448901709925 0.0017732274287771432
551 0.0003625762287256479 -0.0009789843233858938 -0.0009862996948387186
552 -0.00020636958169447143 0.0014766901523885936 0.0011052956469710098
549 0.0002901616869053523 -0.0010372155672924714 -0.0004504334167513264
548 -0.0012467317992723031 -0.001125024193537421 -5.1262265932277635e-05
485 4.382322911136709e-05 -0.002188140235050223 0.0006842782664385023
547 -0.0011710648249282744 -0.00028065221056780326 -0.00107579630031342
502 0.0006002596469381409 0.0024319521206611024 -0.0014538236315897184
484 -0.0026755324870147337 -0.000462647411797603 0.0010727695060291282
457 -0.0026522822338240336 -0.00016880549096410624 0.00010960891567214272
496 -0.0014599026646154522 0.000390790942621944 -0.0018927731513508161
503 0.0024657232891650968 0.0011176298895176 -0.0013682930342394394
456 -0.0011679705147245947 0.0011961896781890729 0.0014448549366265523
563 -0.0017978851151826283 -0.0012115288067142645 0.0009285417230165939
497 0.0029915434006841718 -0.004146258057851526 0.0009365891027749572
564 -0.0021905230073446923 0.0032486860563123183 -0.0005873470769762045
573 0.0018455928234137095 -0.0011531457387286433 -0.0011291432977924814
565 -0.0008253538506368601 -0.0006242186261060504 -0.0008405065730300471
568 -0.0002388592536253543 0.00041559174794867976 0.0009016355202038546
458 0.0010371468083191426 -0.0003465368091870709 0.0005718226289155613
571 5.1575096564469305e-05 0.000818525672544876 0.0005481390036586554
567 -0.0018153475105567708 0.0028823366076265503 -0.00039470310975296306
546 -0.001007964122662089 0.0009579070579722208 -3.279134259004878e-05
566 -0.001426749543181054 -0.001058525341691188 0.002727874206923205
574 0.0016166493368000808 0.00400731267159302 -0.00025480551502166153
569 -0.0011231009868926812 0.0005067464773497146 -0.0008182786238397728
570 -0.0007489367367496387 -0.0004545493798314922 -0.00099282900191363
470 -0.0019679496659445695 0.0010121854507121933 0.002061573802947443
467 -0.001593799552697606 0.0014653950027124123 0.0006662943261539781
466 -0.00012695431008421512 0.0009078665525440051 0.0005744833881160588
462 0.0031328249147431287 -0.00020526576910898873 0.0003694334764775298
463 0.00033550069904664877 0.0005582924048464868 -0.001689369160866839
461 -0.00037552245343211763 -0.0016112352665804495 -0.0016704751915862439
465 -0.0018567536597696205 -0.0015529310596451749 0.004104093435127211
464 -0.00176374424317499 0.00024284258984179244 0.0003592800706016092
468 0.0009658315439460291 -0.0012239415618038605 0.0019661860164524266
471 -0.0009283842891133283 -0.0005312935765698261 0.0004782488484164809
543 -0.003438780783963721 -2.1558763092689867e-05 -0.0025179728081297526
460 -0.001128611385539708 -0.0005794390298973802 -0.0025166645133443857
459 0.0018648234138831125 0.0003397471079640607 -0.0019568403139381472
487 0.0006546582275510023 -0.0003016254639148337 0.0012979164985241502
491 -0.0027549846025838936 0.0009444597426081751 -0.00035589032302417
299 4.4590248164374634e-05 -0.0007521968493131296 0.003049608201874433
490 -0.00010121802827543818 -0.0002128317342880552 0.0006281373645284603
300 -0.0008200278168096262 -0.001106939907298919 0.00012468005496502863
481 -0.0016613156649041539 -0.0014154924745000412 0.0004980643487951237
486 0.0003246339368293456 -0.0008705822847261248 -0.0013589888878757595
480 -0.0011056461282997491 -0.0016020729806294465 0.00041938042986353465
489 0.0002539999332272463 -0.001201575215237098 0.0006607829995876081
477 -0.0001109003038537651 -0.0020529066880710842 0.0017335566265450151
483 0.001223185628722499 0.0002265481041043184 -0.00027368872646625766
482 -0.0010961793018774224 0.0021347462547490438 0.0026009062659774294
479 -0.0008271536710949517 -0.0012178442697785997 -0.0015723572640445828
478 -0.0010416876820818063 -0.001700160488404987 0.0016476229882930692
476 0.0032273808757580813 0.000445940740896624 3.879713798749093e-05
475 0.0027720576258546585 -0.001290463159434962 -0.0005115405305364852
474 0.00046342620939827207 -0.003524487734861997 -0.0009147049442805359
506 0.0008866787674984928 0.00033899342421885123 0.0012249848374578326
544 -0.0008843064858044208 -0.0016417693532987854 -0.0003214412017738054
545 -0.00014383022687147545 0.002098527076805327 0.0009143433078806008
469 -0.0014038373309852223 0.001612857454462387 0.0007216546902781445
473 -0.0008292824925126394 0.0020866971025986746 -0.003447919529739419
472 0.0024178530672038213 0.001507734228669835 0.0007429245992236803
542 -0.0008346671689445439 -0.003022170661086841 -0.0013602352109121064
537 -0.003597669834439359 -0.0002397904909345984 0.0019499863313124967
538 -0.004189142284548653 0.0010522982607441564 -0.0005569397956075178
541 -0.0008519101406558754 -0.002119846259415861 0.0017048079495250897
534 -0.0019543605844185323 4.2649951345785425e-05 0.0003496080678827912
539 -0.0007015642232036229 -0.0005508999342077712 0.0021606190432528795
533 0.0007603572474586721 0.0008485783161387479 0.00236557628087346
535 0.0021149295572854285 0.001315179701338822 -0.0027885249961915846
536 -0.0020079419588731927 0.0009117226749577841 -0.0007259895830227354
540 -0.0017225595436158318 -0.000921184133523413 -0.0014932157508555886
139 -0.0001385560188924433 0.0007938405282913846 -0.0015848823773173776
138 0.0012212341426666438 0.00028583335278705075 0.001641600894534936
118 -0.0018284394878512703 -0.0005227057015228063 0.0005564500722421474
117 2.5999060816708433e-05 4.530657388464288e-06 -0.0013843386250115182
120 -0.0002745053027124184 3.617455421656802e-05 0.0035378442942831994
119 -7.25314944582109e-05 0.0015076707449719405 0.0002592435691464744
121 -0.000154050792132564 -0.0016973793759034917 -0.0014249386592643238
18 -1.1936444392942193e-05 0.002182197890973556 -5.417261286976157e-05
122 -0.001246133824810958 -0.000158298057397071 0.00011520946134414752
123 -0.00042099668037372153 0.0004493469598217657 -0.0012241785853375512
124 0.00036571396255020164 0.000485962735538838 -0.0022378435702511594
530 -2.466303352288761e-05 -0.003064468856362498 0.0010478174539265395
135 -0.002100415180204039 0.0009878155631492787 0.0023271144749150304
136 0.0003208772801544459 0.000336204559684038 0.0013433738018053722
137 -0.0002815700347774639 0.0008780658487455592 -0.0007770653490435197
134 0.0024705799889319755 0.0020965287006933387 0.0019358208260232236
133 -0.0008097735981194953 -0.0018983999233690748 0.002480092862101629
132 0.00110793443720112 0.0017515970574533204 -0.0011136385785885676
131 -0.0008126955860609059 -0.000497667907124557 0.0007133609583520855
125 0.00047599116775869955 0.0011362081825039086 -0.0015434742939803795
127 0.0003998100294163623 -0.000971535438246507 -0.00041393064300415157
128 0.0009069926226217014 -0.0006841770309810249 0.0011746123233817246
126 0.0023370274286343513 0.0002366395643610589 -0.0030314215075679506
129 0.0003804727995697042 0.0005767729498738012 -0.001207476396568918
130 0.0005572591098733631 0.000689700669847465 -0.0013478361575481582
344 0.0006880241389382536 -0.0018459405067737943 0.0007820772293251571
295 3.985469608859351e-05 0.0012891819088654741 -0.0009852284380320402
492 -0.00159801378983754 0.0018663804472828548 0.0006511765003553613
410 -0.0015719560580168036 -0.00041544098298431926 0.00015543033579144824
308 0.002100495050181773 0.0012769822558854414 -0.0003969421378864973
306 -0.0012836461437687693 0.0017199295631630655 -0.0005844798382595865
307 0.001182131212219442 0.000716371276615467 -0.0003728887664579877
411 -0.001473991563791015 0.0004183475148552046 0.0011892910245899478
409 0.0005506613514982408 0.001334779972405933 0.00013894352140443828
414 -0.0005703469573979309 -0.004017660010388343 -0.0001974816468720783
495 -0.0016057927935352518 -0.0034082329307868827 0.0022405655705432332
505 0.0033972009423870143 7.256545734617321e-05 0.00010182481945615601
501 -0.000591324572788172 7.476360082441267e-05 -3.409447230067917e-05
453 0.0014437974544442053 1.61827886379435e-05 -0.000884671646913358
405 0.0003154270971557782 0.00124726892142131 0.002819951736175826
500 -0.002022303128292422 -0.0009498514814175712 -0.001454147951956932
343 -0.0001483610259379195 -0.0016304240191905653 -0.0005343812489035809
342 0.0014824182250868104 -0.0016665572503063678 0.0018841254845851697
338 0.0007305730390042897 -0.0022164415188141657 0.0020505360731179314
346 0.0013225682016173947 0.003350263314387795 -0.0014862642087664776
339 -0.0022776783001497857 -0.0005869521166684408 -0.00094406851213011
345 -0.0034037650919914522 -0.0007300568280872675 -0.0018950554258990514
455 3.736989501740978e-05 0.0018303816336695305 -0.00038357062003646343
406 -0.0007424135910608395 0.0019935330545480788 -0.0021934429150274673
348 -0.0026561227583494253 -0.00182387442022247 -0.0009977398332012104
347 0.001103852235535155 -0.0004777201455931069 0.0009747134583030237
349 0.0009632164926248456 -0.000484011314835976 -0.0019242595977019645
402 0.0041919370060475945 -0.0015765739843830561 0.0010581945103626312
350 0.0004617494532990175 0.0011651769756837141 -0.0017992911817038184
351 0.0009917753313304827 0.0003002319965919386 0.00018101378544688122
340 0.00025011951994357955 0.002244720116593058 -0.0007955379020355368
354 -0.00042164443630967924 0.003099127655435631 -0.0008784456065039956
353 -0.00043174099784586806 -0.0018215703452404734 -0.0019828637072999552
352 0.0009101101543441557 0.0010351383755942062 -0.00273897076828191
355 -0.0023387444220925504 0.0024962526470315217 -0.0013296965018322064
357 0.00047994239272372726 -0.0010141532304726213 -0.002826110422501943
356 -0.0008180485399553256 0.0012288366443352881 -0.0012094725199256005
399 0.0022440048413684384 0.0008625245145522512 -0.00023753211616663072
504 -0.00039934672852293053 0.0006414552014202942 0.0009376901222024131
358 -0.0014309260143398667 0.0012806457716213662 -0.001459151230914307
401 0.00028600028799738734 0.001016251165329272 0.0033220718080707334
403 0.0009201381481007012 -0.0003890319848484407 -3.7888754087356117e-07
337 0.0005882903296132568 0.0003142862710090727 0.0024798891616684706
336 -0.001528711634372342 -5.124729846526507e-05 -0.0011151363164682779
332 -0.0004883284429372782 -0.002487336956712876 -0.0014963433733139059
400 -0.0012601837246893123 -0.0003522683734743798 0.004231483083771909
341 0.0023533969454364316 -0.0005430910662259612 0.0002976015976747827
451 -0.0016767422490092513 0.00010392830737963582 0.0025410038899481603
454 0.0006403870959595083 9.168424222412089e-05 0.0005450787414186698
404 -0.00010124190768808701 -0.002532327986290542 0.001984437938714742
452 0.002780971316914253 -0.002462139650757224 0.0016791034872135813
333 0.0011210088243757167 0.003334522827292552 2.155649989567861e-06
450 0.0005423060295233856 -0.0012610744659234863 -0.0009866144047749699
448 0.0011882131261384168 0.002052979450266498 -0.0025297189143737987
449 0.00216125553049796 0.0017662576517678368 -0.0016568573928518902
296 -0.001508549545891058 -0.0005043194249813897 0.0008260532366814056
297 0.001337183994686796 -0.0014901208174385734 -0.0008665136920307009
298 2.5595245570623733e-05 -0.0014613855056624932 -0.0010255366899767538
49 0.00015743572089575844 -0.0019469970726115813 0.001329956209111862
197 -0.001478459454598428 -0.0006372861270505473 0.0024692542300934987
195 -0.0005737256221431927 0.004719587542715727 0.0006028197196828263
196 0.00014391055819845179 -0.002135738904797724 0.0020554974427108618
194 -0.002507641476595053 0.00015286012917710876 -0.0025597353377002944
193 0.003475821836464497 -0.0015444090600247036 -0.0018507168257390469
190 0.00041640851468863823 0.0012315667671684415 0.0025736036536097777
191 -0.0019478006331925418 0.0019471579825793611 -0.0010290899472241712
198 0.0001771121085419718 -0.0003782583322559353 -0.0005014492218910421
201 0.0003000132681934449 0.0004073862383360078 -0.00046211572545372203
50 -0.0011436840969753195 0.0005497854984609838 -0.0005263125053841534
202 0.0011799659223430817 -0.0018569030614093867 -0.0010251452104006245
309 0.0008453379279190044 -0.002192230591436236 0.0010972217764807918
192 0.0001232600942011471 -0.0011420954463154114 0.002131488397233072
301 -0.00035342882972128206 0.0021123484949797993 0.0001895694859433479
305 0.0011035132636113896 -0.0006101843770550418 0.00031965605120860694
310 0.0022265740195769115 -0.0002661228328448783 0.0005085207914068792
312 -0.00022864079169824028 -1.1804294766551558e-05 -0.0005325453833170976
313 -0.0022593283194021485 -0.0002753459619483081 -9.621781046875374e-05
189 0.0006772999961773424 5.265327619504738e-06 -0.003179964258453517
188 -0.0001464336648536273 0.0010863341458857974 0.0026254073839420454
311 -0.00017991476073749284 0.00042801914416003994 -0.0010287608679683227
302 0.0003900708722480706 4.7888759665227316e-05 0.0003033169281117608
187 -0.0007038686802809278 -0.0035472342537939635 -0.0010095470174032008
184 -0.003073165241677251 -0.002050618559266564 -0.0009130137003818538
314 0.0012664561648803403 0.0010813229957962465 -0.0001432607882126986
315 0.0030502866609726964 -0.0020650726839361645 -0.0018224587239329593
185 -0.0018842056088696707 0.0008011958978366457 -0.0007166569357161718
186 5.8026010724005535e-05 -0.0014792372371669224 -0.002004970064986242
1 0.0004119309030293476 -0.0014680775981157808 0.001046767180845926
304 0.00046182321875019633 -0.00034222644664491154 0.002063149374410919
509 -0.0010145988113825395 -0.002061506143912051 0.0015992111758299573
303 -0.0018775221304022038 -0.002095490547567157 0.0007922183699346682
398 0.0027315008223341747 -0.0032228534584178565 -0.0010368306931789384
359 -0.0009029431769681244 -0.0015966873108845736 0.003318261394236907
360 -0.0014279585402498438 -0.0011051531542421702 -0.0023338073497578384
510 -0.0005907560618542674 -0.0017793235222733652 -0.0020772174384236708
507 -0.001251669995074846 0.0010333087064413626 0.0004609797393411887
508 -0.00042409966509932847 -0.0009495144913920797 0.0008851287354879768
514 -0.0040179726633996745 -0.0010217914540871546 0.0024574293297060608
394 -0.004170245665164245 -0.0008450837830810672 -0.000968503756376099
395 -0.0008113544870009177 -0.0005711148425549987 -0.0021937121169818925
511 0.00038037423804285024 0.0006421843214409058 0.0001063268331748123
391 0.001199613531233326 0.00030289164869608416 -0.0025148265206540164
513 0.0014933091158965477 0.0006267832465328204 0.0016390119034482545
515 -0.0016988486606486562 0.004100024130401206 0.0010813615338028458
512 0.0005514328025789086 -0.00166151496657217 0.001074433392170645
517 -0.00042354729028679165 0.0006675381609325592 -0.0016842915553107807
387 -0.0008743478046515207 -0.0008200604743494664 -3.965146012741526e-05
390 0.0028468959794349814 -0.0019258447444050965 -0.0025035094061976525
386 -0.0003404393617196521 -0.0005685439728825555 -0.0010150047944555165
397 -0.001259666239940965 0.0003588518112141109 -0.0006138330895472569
392 0.00328105870474846 0.0024766900104802396 0.0009482113865711774
393 0.001104059231776625 -0.0007548972145230275 -0.001097609904107061
396 0.00022517639961488207 -5.045521502679214e-05 -0.001572169848332504
516 -5.671350844334165e-05 0.0002750677839705442 -0.001781644878023853
363 0.0009656953940477017 0.0007909928218897765 -0.00011759712599470438
361 0.0009196735550820847 -0.0008399315433892655 0.0004997422057209603
532 0.0015775624279190058 0.0011802132778695614 0.00018912697594421397
362 0.0011243973198571597 0.0014431991993272204 -0.0032724442880080378
383 -0.00037626177692966255 -0.001001989464339199 0.0033354335582878687
364 -7.092755274556405e-05 0.002592202843708026 -0.0013971194354993046
373 0.002925530242950683 0.00018870331004394383 0.000525565300690393
369 0.0009214358301833031 0.002776181313733554 -0.0022843486667860308
366 0.0005085782184272847 -0.001046185003716655 0.00030462682259310947
365 0.0002766432808531651 0.0018829626122745103 -0.0006116240738143086
367 -0.0007683105912807382 -0.0015214379005903354 0.0010513660383440352
368 -0.0011316783858469175 -0.002317979808972179 0.0023276599760787826
372 -0.0024193632401807623 -0.0007412368706379567 0.00018454052210928416
370 -7.240887481326226e-05 -0.0011675008966985964 -0.0013777248194938821
371 -0.000787558202122371 -0.00024004370662511793 0.0007260870393693601
384 -0.0009588714698966287 -0.0018358131367587106 -0.0004326018181429938
145 -0.000762898452446486 0.002254449182433527 -0.00015438887032103067
147 -0.0007173567935497792 -0.0026885556272257406 -0.0004412087045246459
146 -0.00015358090339812503 0.0008178201172153337 0.0009904097792812067
148 -0.000686823985068462 -0.0017298286462829574 -0.0029756335909965326
114 -0.001280271601418063 -0.0028471966464215267 0.0011967650563398451
140 9.007381140392954e-05 -4.010164187000497e-05 -0.002236844476953551
141 -0.0009470096246440299 0.0012619278154896595 -0.0012790308040133186
143 -0.0012189791292832898 1.0996484645243047e-05 -4.23153298883423e-05
113 -0.0029664955499754536 0.002704941593179755 -0.0016328231328871282
149 0.002929169541839135 0.0029115096324817463 -0.0019389438037197846
144 -0.001346448067042623 0.0024851112262536915 -0.0004762277349151851
142 -0.0017674523874911356 0.00047053365341317695 0.00040619331204271735
109 -0.002425113807851336 -0.0012572904636380471 0.0012628104974940087
110 -0.00010777634834896314 0.00037889432737956867 -0.0016651310688510488
37 -0.0013476754369374222 -0.00194288349971455 0.000868984373541667
108 -0.0009049424265671642 -0.00265594969717752 0.0020834556844685
111 -0.0007978479429415915 0.0014477391960341919 0.00016048718424593227
106 -0.0007060276178561256 0.0013316805643180656 -0.0006098452175715735
107 -0.0008863290972428808 0.0009763161941779231 0.002881828597620306
105 0.002127059157904321 -0.000388569202613154 -0.00017382423237362126
115 -0.0016696980954995578 0.0015457913880265154 0.0032185069343597804
33 0.0003014474035288531 -9.04106679801696e-05 0.00021943941121512078
112 -0.0028030511190453417 -0.0011175412165823166 -0.0009209525480534919
15 5.395261729168783e-05 0.0018459555027489504 0.0008489605613077688
116 -0.0008882826353678498 -0.0002679709860331315 0.00045392283218155673
14 -0.0010419020794225546 0.001291986117362123 -0.0012095293600752313
17 0.0010013828383460509 -0.002150082270029128 0.0006923962243163802
8 -0.0031267405677303326 -0.0009797542452123717 -0.001365668134443053
9 -0.0014244957360960602 -0.0002652433880085301 0.0006653659729353571
10 -3.461559689152513e-06 -0.0005678679994773068 0.001638183551618351
7 0.0014999771828069497 0.003717948777273272 -0.000386671384257843
12 0.0022199965542213287 0.0010571296105623212 -0.00010120711571818283
16 -0.0006559217561158668 -0.0019396370213265307 0.0008842333745873261
11 -0.0008378416718401173 -0.0015796036688432023 0.0014255910080055508
51 0.0008477409534172712 -0.0027190726880967696 0.0029831092758311056
6 0.00155382241008049 0.0014984268863604791 -0.0007897781112578243
104 -5.1603359817545334e-05 -0.0025343104172660343 0.0005632293448895011
103 -0.0004941190264827688 -0.0014446376029899303 0.0015265651636250752
100 0.0005355351431885377 0.0018978861701922053 -0.0036188138207051764
101 0.0010275497388558253 0.0006639456176721333 0.00038934688637318985
102 -0.0013922651681397432 -0.0037431214376200802 -0.0011913141925451285
99 0.0005037948444112093 -0.001535320464307827 -0.001608400573895941
96 -0.001629886666763786 0.0012390440554258116 2.8508724887971025e-05
97 -0.0009236370968666494 -0.0005500453801643171 -0.001216043737420402
5 0.00018723735487413933 -0.0005080904435584549 0.00010788693914092303
13 -0.0012470835884408416 -0.0004134015996634401 -0.0036920271024140265
54 -0.0018065156716939642 0.0003470143322573063 0.00011570552359321335
52 0.0004315213641843909 -0.0007502240714115614 0.00038959441036372883
55 0.0016431812137643405 0.0028022123531577315 0.0015257779361422545
205 0.0005594553555150993 -0.00021356665261273053 0.001185899848933474
209 0.0011217165115054227 0.001066072620075405 -0.0015002170820623563
4 -0.0009656181532386018 0.0014741391206108106 -0.0011782860611947931
98 -0.0007151057179119282 0.0015006232363392227 0.0011408556422604914
3 -0.0018849605267558817 0.002261863225024836 0.0022788915768891796
2 0.0006073215268258808 -0.0009080089647762542 -0.0005972515351774605
518 0.0012864596196151934 -0.0006803802318384211 -3.08255973475245e-05
521 -0.001423435375967114 -0.00036393862174597676 -0.0033434882275267257
522 0.00022424664112349207 0.0008390893302061968 0.0005407537497180748
520 0.00027285090815933174 -0.0005178802871500361 -0.0014758972335131156
528 -0.00037754075117528923 -0.0003556927546112787 -0.0016538657651091991
531 -0.0006068544433926334 0.0011266418536561636 0.0004636304899103841
529 -0.00044200345870029764 -0.00044009983208386454 0.0014519647488361956
527 -0.0020923837452377935 0.003834158841123274 -0.0005214922382481924
519 0.0016442831528011089 -0.0022300071675117137 -0.002278149308459446
523 -7.886591201996005e-05 -0.0011770347008412609 -0.00016226980562300276
382 -0.0006646686549633576 0.0009158026439522586 0.0011176244305314414
380 -0.000559199146996236 -0.0009855690045643777 -0.0013857814832543306
374 0.0003330876217762038 0.00010798260999000958 0.0006638456743322935
375 -0.00038473040987134407 0.0011252452118966855 -0.000588961785897726
526 0.00037793050328712135 0.0008422441145108091 -0.0017111823834316405
524 0.0014056301158119698 0.0012926225907102366 0.00388355042902808
377 -0.0016764119279608866 -0.0010739504725409417 0.0004535910286050818
376 0.0013890429186321817 -0.0007850030130197128 -0.0019940395343245724
525 0.000249186909110268 0.0003970977283805473 0.0002417795387487688
378 0.0009834045897286704 0.002895652532926981 -0.002445549407326799
379 -0.0009237671115580254 0.0015945717357242503 -0.0034015735730257043
29 0.0003341233320629871 0.00029373151921851094 0.00031710741353350406
19 0.0008047148374935377 -0.0012492756841037597 0.0031720113610722903
20 0.0013852649292656982 -0.0016840455348258265 -0.001682406361385717
30 0.0012610085566775128 0.0002283309545960945 -0.001319495851482339
24 0.0011490259894153267 -0.001197286920537756 0.0017736398117030093
93 0.002261829079807621 -0.001903328077120835 -0.00031181240003698603
95 -0.0007705439639065813 0.0009005426822643997 -0.0006748485944188479
94 -0.0027270824230421348 0.0002489829060978389 0.0027648300612271625
21 -0.00042246786844060214 -0.0010564648881033992 -0.0008812835447157436
23 -0.0012984434179737234 -0.0005025002418916391 0.0001855109088389882
25 0.00038927375751589727 0.0006609903261262513 -0.0006542948342013999
22 0.0003647548535808794 -2.2050569223582926e-05 0.0030970645699897013
26 0.00017779679570938394 -0.001906995139246031 -0.001054382067665719
90 0.0028408893251544768 0.002761434221470878 -0.0003037728718312122
91 0.00020889616572010623 -0.0012482218332877267 0.0009874170890872699
27 -0.0026478108316738726 -0.0012299770452936496 -0.0015023885166860589
88 0.0021327103832125883 -0.004595611567853344 0.0016763999157071862
92 0.0004096657430264965 6.972274615616689e-05 0.0008871073052541187
444 0.00035049432769121517 0.0003189158826071546 0.0018976069323126737
445 0.00021534094572815465 0.0008824983872589723 0.0010172479308817371
290 0.0009255501737970527 -0.0013585335468328022 -0.00014312507390005564
289 -0.0004501591317278017 -0.004427435701368329 0.0003299456800537553
294 0.0012286062528786576 -0.00043864978255450746 -0.0011948185406495133
291 0.00029306007158349026 0.0021345923259181113 -0.002318417415162615
292 0.0005304292244564461 -0.0015738481073329287 0.00037148380509537566
413 -0.00011944408682061702 0.001263515266596578 0.0007441073752618466
447 0.00047296163936740867 -0.002715028214824266 -0.001691627201446649
412 -0.00042853727559672534 -0.0011585733890460898 0.0020042375460553605
446 -0.001268066815866085 -0.002330797439667625 0.00306752410416905
443 0.0018528369055206056 -0.0006108791662708924 -0.0025907225612427525
442 0.0008618713795441663 0.0004063214308883489 0.0010508258394352544
441 0.00013139910328475155 0.0011044220928478389 -0.0007949276878865569
415 0.001255335036061095 0.0019403089900644137 0.002026417467811081
438 -0.0003679984229754595 0.00010001971115954897 -0.00043239711958945656
437 -0.0010680431572332519 0.0008324814466661917 -0.0006570261803194458
436 0.0009081867998096588 -0.0004893726927723308 0.00035585902629436256
416 -0.0007035019978963348 0.0011496012261322294 0.0001621297582711105
435 -0.0002388307863857052 0.0012855552577248786 -0.001748384288008158
408 -0.0010874174414169172 -0.0016810436754550236 0.0010293794862462706
439 -0.0030720885182937726 0.0015822577846700517 0.0004986854188679631
440 0.002078491375326133 -0.0022900181812902445 0.0008325095240733941
329 -0.00038913097227891326 -0.000200977975142678 -0.001850220635891568
407 0.0037754965359075125 0.0013725858338089092 -0.0003217531494511322
335 0.00017508282774356327 6.828280373008164e-05 -0.0011767062906647145
328 0.0007122583218996336 0.00039770345349992567 -0.0004310887789493014
334 0.000900575283559794 -0.00027601510805933265 0.0003135646713532114
331 -0.0008219690886162116 -0.0005651207145336838 0.001207481291550782
330 0.0019887779003121974 0.000688637809142822 0.0033413292407461436
327 0.0009901700890236538 0.0003952152132080187 -0.0008499391953416349
48 -0.00019705759204385466 -0.0019318547485103206 0.0014939865751880793
46 0.0022093667319051475 9.652860175276812e-05 0.0002854956562701987
45 -0.0010025474531289151 0.0015250012725016224 0.0033430274912167623
199 -0.0005090813554342047 0.0011748201902887106 -0.0003749152198962837
263 -0.0010471406327461593 -0.0026930496922710203 -0.001584862900291405
260 0.0003632583544644052 -8.605173736882786e-05 -0.0007806933206286771
262 0.0009602789860635562 -0.0018017871295435033 -0.00012954486524843593
264 -0.002749666235303744 -0.0018096827812546712 0.001986656224227411
261 0.0022145008419273866 -0.002528182604162163 0.002746527141507144
256 0.00122147215857938 -0.0001572869464629062 -0.0010152229644613724
200 0.0004806379245589895 0.0016781215465269137 0.003787274294923889
253 -0.001363824209945386 0.0007447336441140084 -0.002017839305190044
159 -0.001610021575146264 -0.0022167062678026613 0.0003250623902395792
158 -0.0004026273016175488 0.001842872133011799 -0.0016848283960847227
257 -0.00030621266738003377 -5.646294662154652e-05 -0.0021517179409423835
47 -0.00020097257410592328 -0.0008243578238386229 -0.0006788054404796454
252 -0.0006313788437640799 -0.0019188891476708643 0.00013536162776819633
265 -0.0002887323941491106 0.0009400279741525885 -0.00020186682883805018
259 -0.001236130982182596 2.1724584323670244e-05 -0.00021043116523644065
255 0.000521429785149341 -0.0001262930402664354 -0.0011037227706196977
254 0.0016470578937280418 0.0009711905970676057 -0.0021535408615214677
258 0.003028005213028131 -0.0008570718290444166 9.374449971965033e-05
160 -0.0002448204484242348 -0.0012688780440378393 -0.001017411293049327
157 -0.0018596466295285868 -0.0013885437999166766 -0.002096901418204395
293 0.0020954573037088834 0.001493235868253212 -0.00017440057903497005
434 0.000589108669148047 0.0004052067838532573 0.0004731917590046922
251 -0.0015341424822818846 0.001016095024571341 0.00027019719692495823
316 0.0018448575469119013 -0.000954233931007454 0.00029815959629064185
419 0.0009376608321800103 -0.00043023327881212896 0.0013979257026544944
417 0.0013717573568261564 -0.0009015627940211936 0.0010402150897118624
420 -0.0018814089996694978 0.0003723857219470056 -0.0001254672439336596
418 -0.002251006546458136 -0.002488626513601142 -0.0026917578847509126
183 0.00010325152529516257 0.00010939060021972004 0.0003082556311575052
422 -0.0016668057262418945 -0.0013991239378498264 -0.0002708611338796287
421 0.00028613674644199045 -0.00029657075199677167 -0.0011781171271215542
423 -0.0004595030246173723 -0.0022206992704843142 0.00020424635076147243
424 0.00139201113174903 -0.0004210099047976119 -0.0017048261366480058
426 0.0005327469765234973 -0.0012521973110725957 -0.0001371954260774637
425 -0.0024300588820254034 0.0004110187017468574 -0.00037911611306841637
182 0.0005133094360302774 0.0014977482486935364 -0.0010534104910940498
181 0.0008550808667742678 -0.003182141515779774 0.0008611987189237427
317 -0.00028522661468064034 -0.00030116206626186763 -0.0007009769028741022
318 0.0016317793385527157 -0.0007513149185417723 0.0014273766349996758
427 -0.0008283106653671274 0.0004572374647273651 -0.0007829760588986142
431 -0.0012536089811858108 -0.0010084849241473218 0.0014910811233959723
428 0.000136754001657723 -0.0012980629729358265 -0.0008303006137704014
432 0.0012593749292104345 -0.0008284552125125961 -0.00012292183511232338
178 0.001491997061801975 -6.013022503354717e-05 0.0006282536366871135
179 0.0008138550830986721 0.0003399266807433089 0.0026736733057004785
174 -0.00015003305291123382 0.0016574271213285526 0.00016437501986439924
173 0.0026373513765699666 -0.0013147041136086306 0.00047256130126689135
388 0.0004853000011225603 0.00018697059600766375 -0.0005826661144854111
389 0.00013427527426044828 0.0006507952194492739 0.0003996985219285611
326 -0.0010829156730473581 -0.0008492289233416055 -0.0008279463867190523
323 -0.0012616589109265986 -0.002178897599493282 0.001979591567337132
325 -0.00041319290540773365 0.00021149095292654268 -0.0026739419052626725
324 -0.0015361399093172926 0.0027814300523879712 0.001401790493574647
319 -0.0005385842760215036 0.0022795805789125097 0.002150927563952263
322 -0.000930763268985467 -0.0032317846816192065 0.0013247298884103277
321 -0.0002640979241302543 -0.0002126105723953959 0.0026177117402305713
320 0.00027226891804287825 0.001318819202592933 -0.000995394324254111
385 0.00028029717380445183 0.0030389838157453006 0.0012526932524854323
381 -0.0017058801355905669 0.0031173632298653153 0.0018573844852192271
34 -1.2984267202131335e-06 0.0003749026794464118 0.0007600726321229664
38 0.002597517764750627 -0.0020403760849315444 -0.0006809093555946628
36 0.002351025402388501 -0.0002501245621362849 0.0011056135189672148
44 0.0023457322116470338 -6.225336317486535e-05 -0.0014925898436916906
35 6.17270672022973e-05 -0.0012224793603563648 0.0034952905331611644
41 -0.00042559562137271567 0.00017911789533506657 0.0012596953667484401
40 0.00058056750439685 -0.001251574234283061 -0.0006229490851203222
39 0.0007337234454203147 -0.0014200731310320845 0.0018803167458800356
43 -0.0017633876555439014 0.0017373423477044555 0.0020870216761025738
150 -0.0023734217674131275 -0.0008228709671298422 0.0003363296584100431
42 -0.002577188683711701 -0.002489365817175845 -0.0001993415569336578
151 -0.0012167689460837422 -0.0018002457183423795 0.001497887518549873
206 -0.0008861579609630087 0.0007553531737905812 -0.00280280248615941
204 -0.0003922524872037085 0.00014569237075533572 -0.0005938996783185648
161 0.0007397100076644837 -0.00016728248887000756 0.0032313604885243234
156 -0.0006484362421367442 3.019007689520981e-05 -0.001096242490603207
203 -0.00011883708013663919 0.0021761004734179015 0.0003096242490256639
155 0.0001879547483653199 -0.0026282611477434423 -0.00025902482575233343
53 -0.00048522123674135686 0.0013668966266495108 0.00181438743859786
58 0.0005813959195640893 -0.0011918828842817162 -0.0006537419714718295
154 0.001636419179494961 0.002569118701528632 -0.0005455812154707008
57 0.0008045574487546834 -0.0011557739237749473 2.7715985761004062e-06
56 0.0020162837730320765 -0.0021626828223915255 4.965764597008755e-05
153 7.013107365927407e-05 -0.0018598981837720646 0.002372161229559946
61 0.0030206097322607855 0.00031994297495759234 0.000658533450750333
60 0.002871715590791158 0.002099974116100102 0.0009978545906320579
152 0.0008573689359391662 0.00036450460493339654 -0.0008738721308071994
59 0.001283722289434754 -0.0003259713049948586 0.0009180280854301901
64 0.0007533287006959947 0.0009724244047750114 0.0019738474891480414
62 -0.0005372898723937588 -0.00041971082220244117 9.220038002809823e-05
63 -0.0013824842278407296 5.006568043549516e-05 -0.00026941005388463686
249 0.0003862467139143106 0.00034815673407117236 0.00043780360654309023
207 -0.0002886342396751888 -0.0009736869363212579 -0.0004968496250941673
248 -0.0021082548239614776 -0.00023713543929184647 -0.0014580666363325362
210 0.0004785238411088959 0.0007482463125640169 -0.0006247743617855889
245 -0.0014722092148592755 0.00022151554708750964 0.0009321178347871311
162 -0.0012248516210740122 0.0016228584557298688 0.0020619569950300893
250 0.0007922181924621697 0.0003034560065119315 -2.452323323696206e-05
65 -0.0006656087668950242 -0.000966259726741134 -0.0006427152627057802
165 0.0020569186462456885 0.0020087250427981047 -0.0019362221553887646
246 0.0010913096499251278 0.0014796930088964004 0.0006249107319381856
242 -0.0013788298292005544 -0.0002269130472079063 -5.4015896931766384e-05
208 0.0021833968009597237 0.0012305037010365478 -0.0012931725393088536
213 -0.0012231234029514624 0.00018304967618389294 0.0014638401885399453
212 0.0013483007403054844 0.0008639291580321961 -0.0012981229947897955
180 -0.0002666365817335492 0.0018395718393301832 -0.00020572405985956602
175 -0.0008230205158159115 -0.00292106535474398 0.00218988908009358
177 -0.00164567097004204 -0.0015991264015930667 -0.0022120992891162673
247 -0.0017853856685437568 -1.3947119193960143e-05 -0.000999496043024714
176 -0.0017619427814148422 -0.002902267702535416 0.0016236963021683403
244 0.0004835931732567139 -0.0015131855343791002 0.0010770629946245777
211 0.00037855416405722095 -0.00028109287724312936 -0.0007872268604360254
243 0.00011379516668594779 -0.0006292278328290375 -0.0005472348293645012
239 0.00035676648554640224 0.0007812128820156953 1.3265743456660292e-05
240 0.0031066763758862536 -0.0016693884310392214 0.0004317117607682168
215 -0.000904604267628738 0.0002733456371120573 0.00030659916884625773
241 -0.0020327700626081077 0.000583881440272858 0.0003905035681079627
238 -0.0004910313815933825 -0.00024275376351117465 -0.0012089440783872845
214 0.001639144798638846 -0.00162471486408135 -0.002639972808940929
236 -5.471490079256367e-06 -0.000952003767209982 -7.046814795046879e-05
237 0.0010703573294181237 0.0011083064139243615 -0.001790265499955927
216 0.0007935282560088184 0.0005925970092178776 -0.002022609411248188
235 0.0006571010066104179 0.0003682191694210409 0.0011483747042175011
32 -0.0024230229822831627 -0.0010512034693744645 -0.0018294669933934687
87 0.0010944028653374883 -0.0015790095079771165 0.0006213541700489537
89 -0.0007112357007800697 -0.0002960168174574486 -0.002061940828514477
28 -0.000679347956172727 -0.0012322856135190934 0.000978861561641814
31 -0.0014506129923679177 -0.002564270395989659 -0.0009950537158884176
67 0.0021765311097154665 -0.00013866467145303454 -0.0004900859546155919
66 -0.0006575781061347335 0.002211600616861889 0.001291252797094529
70 0.0012680289759217328 0.00022244288497694952 -0.0025101263469317243
86 -0.0004200888277702681 0.001513885683522032 -0.0008063626381834507
83 0.0009698411000899876 -0.0004444199754839426 -0.0016294449618807277
69 0.0010433488960720797 0.0009413396671017636 0.0024520906606369497
68 0.00036661375007793564 -0.0009421500046306419 0.001926631008444681
71 -0.001697618631233711 0.0013981164322755084 -0.0013627124962211378
82 0.0025264830100462064 -0.0005848395481981258 0.001177128252034077
74 0.0001644148697772428 -0.0008937949951816907 0.00012106539685509621
73 -0.0013806158167549776 0.0005362634460615054 0.0018436001366134193
85 0.0003156836961156561 -0.002418382391499884 0.0008067303751663789
84 -0.0003534080196822586 0.0003447771155499337 0.004059230203729811
220 0.0014048032850321821 9.416273180032174e-05 0.002517253172914824
72 -0.0008249358689471045 0.0013768775629177628 -0.000582431547596789
81 0.0011248111329772552 -0.0009421982132131882 -0.00011981022468993761
218 -0.0009361463559443104 -0.0005830257290750636 0.0009550666359441195
219 0.001802170787221013 -0.0007430742342364458 -0.0009990743153851028
217 -0.0007811286741500282 0.002098210896223134 0.0017218004116578414
232 0.00011821985827207158 0.0020541429733763853 -0.001534906521979867
223 -0.0003863330327337455 0.00024224620475105305 0.0005002146983467954
224 0.001195181170866685 0.002208192585245816 -0.004566424742297041
221 0.00225247819189485 -0.0005299089140234902 -0.00011215500888374019
234 -0.001701233893760132 -0.0007938979423811973 -0.0005395191237333714
233 -0.0012641195765118688 0.0022974624389413304 -0.0024188465824279
75 -0.0005529465793265977 -2.505749816259775e-05 -0.003951444227187361
222 -0.0002007529238888368 7.193922100225711e-05 -0.001016736358390219
231 0.001493761543136493 -0.0017812325336511163 0.0005014946204469937
230 -0.0008712153503490031 0.00029909833365580126 0.00035242018035818324
225 -0.004297408841930463 0.0011310140421912007 0.0017620872526758118
76 -0.0007294913876739929 -0.001145314312037315 0.0013056725613020148
229 0.002278165906514081 -0.0016309038058793985 -0.0006225515278621749
226 0.00201978612640037 -0.0005115410752102982 -0.0039442975554872675
227 0.0006828530094322412 -7.429084703493446e-06 -0.001619936695650027
228 0.0005318743560001814 -0.0006120271730632297 -0.0005945636676011106
77 -0.0013420911755370407 -0.001676466701209229 -9.185215619288874e-05
79 -0.001058818163898887 -0.001974765124377851 0.0017147435315651993
80 -0.0022743007284060095 -0.00016418403004444618 0.0011318984329145953
78 0.0015820169531358336 -0.00026074320156403865 4.342636572350858e-05
266 0.00044001001447811 -0.00106122594456388 0.0014106967132501587
268 0.000555852794683517 0.00043227001753190367 -0.0002839043108898192
270 0.000277066051243541 0.001070691140745965 0.0006845132095979221
269 0.0011881023055535377 0.0011855128035042275 0.00012184065139891209
273 -0.00036471199430653065 -0.0005530681130199951 0.0018053082558035516
272 -0.0010502527026263941 0.00012240058820709462 8.354985558641644e-05
267 -0.0016831902268172735 -0.0011704099221898565 -0.0022494089521891145
277 -0.0007502265487111155 -0.0026022794379896774 -0.0011322372755327335
271 -0.00089177016821352 -0.00024420181106033954 -0.0007504917557501723
274 -0.0005796934468889612 -0.000851310119475492 0.0005687924011942583
276 -0.001398756374757054 -0.0023157084242444287 0.0026711159591985513
275 0.0019135508106419177 -2.07495751243439e-05 0.0011510512854173566
287 7.075073162185263e-06 -0.0019383432197140555 0.0012753851797437442
278 0.0023689474596867294 -0.000830435259283419 -0.0005016441403905694
282 -0.0010565187215111345 0.0012862217438971376 -0.0003737703134642303
288 6.745438319485938e-05 -0.0002794052721125738 -0.0018400581871172237
164 -0.00025811983467692416 0.0021907901279820275 -0.0004972948640295137
168 -0.002944303679512644 0.00030172066983097867 -0.0019536207800805935
433 0.00030353589052869523 -0.00034692179792273107 0.0002448401688439626
430 -0.00036073484008043613 -0.00040192117019632634 0.0008619511434737449
283 -0.002130930505121934 -0.00024594691817948376 -0.0013078320489899689
286 0.0002598412896213302 -0.0009392627923772958 0.00210026060439105
284 -0.0006076196203834708 -0.0011293413998153775 -0.0027701449064628514
285 0.00046674069004346404 0.0015775315421527971 -0.0007584726372251686
429 -0.0008585511532381491 -0.001771331119005281 -0.0012995877012158931
279 -0.0014737005823556159 -0.0011529080946033993 2.927945218610459e-05
172 -0.0007697184345448002 0.0017612226400936014 -0.0004215178971253566
167 -0.0028162057332575628 0.0006701651995161564 0.0012028907867976913
166 0.0006609409591609394 -0.001757632689314013 -0.0018069580517262964
163 0.0012413072467144246 -0.002132322851964966 0.0005227514822239928
171 -2.7304170176448394e-05 -0.0005747549216117787 0.0007945644924797907
169 -0.00027985915159994113 0.0016175271665003473 -0.0012005566575238541
170 0.0014309262084728294 -0.00024136985242007014 0.0015839947562038398
281 -0.0018597452499139063 0.0004003130792327996 -0.001491903198820105
280 -0.00039956594618192193 0.0032157949142253557 0.0005259502126510787

Bonds

1 614 594 596
2 1153 594 595
3 1206 587 588
4 1207 587 589
5 1200 590 593
6 1210 590 592
7 1212 590 591
8 1203 588 589
9 1204 588 590
10 1126 589 596
11 1199 589 593
12 1205 589 590
13 1211 589 591
14 1158 592 594
15 1201 592 593
16 885 593 595
17 1157 593 594
18 1202 591 593
19 1230 591 592
20 976 582 583
21 1121 582 584
22 1122 583 584
23 1124 583 585
24 1102 579 581
25 1108 579 580
26 1155 586 587
27 1156 586 588
28 1104 581 582
29 1105 581 583
30 1127 584 585
31 1154 584 586
32 1103 580 581
33 1123 580 582
34 1128 585 586
35 1132 585 587
36 1110 577 578
37 632 577 579
38 711 577 580
39 1114 575 579
40 1115 575 580
41 1118 575 576
42 1119 575 577
43 1113 572 580
44 1135 572 573
45 1138 572 574
46 1139 572 575
47 1106 578 579
48 1107 578 580
49 1109 576 578
50 1111 576 579
51 1112 576 580
52 1116 576 577
53 994 493 494
54 1572 493 495
55 1531 494 496
56 1564 494 495
57 1565 494 499
58 1567 494 500
59 1125 595 596
60 1167 560 564
61 1245 560 561
62 1246 560 562
63 1247 560 563
64 1571 488 494
65 1573 488 499
66 1609 488 489
67 1610 488 491
68 1611 488 493
69 1616 488 490
70 1619 488 492
71 1168 561 564
72 1171 561 565
73 1248 561 562
74 1249 561 563
75 1433 499 502
76 1569 499 500
77 1570 499 501
78 1574 499 503
79 1209 557 590
80 1231 557 591
81 1237 557 558
82 1278 557 559
83 1279 557 561
84 1280 557 562
85 1208 556 590
86 1236 556 558
87 1270 556 557
88 1169 562 564
89 1172 562 565
90 1190 562 566
91 1250 562 563
92 1240 555 558
93 1275 555 556
94 1276 555 557
95 1232 558 559
96 1233 558 560
97 1234 558 561
98 1235 558 562
99 1295 498 554
100 1415 498 555
101 1418 498 502
102 1419 498 551
103 1424 498 500
104 1425 498 501
105 1432 498 499
106 1239 554 558
107 1251 554 559
108 1253 554 562
109 1272 554 556
110 1274 554 557
111 1302 554 555
112 1241 559 560
113 1242 559 561
114 1243 559 562
115 1244 559 563
116 1283 550 553
117 1284 550 554
118 1291 550 551
119 1292 550 552
120 1238 553 558
121 1252 553 562
122 1271 553 556
123 1273 553 557
124 1285 553 554
125 1301 553 555
126 1293 551 553
127 1296 551 554
128 1416 551 555
129 1421 551 552
130 1277 552 556
131 1294 552 553
132 1297 552 554
133 1417 552 555
134 1281 549 550
135 1282 549 553
136 1289 549 551
137 1290 549 552
138 1303 548 549
139 1304 548 550
140 1430 548 551
141 1431 548 552
142 1443 485 486
143 1448 485 487
144 1449 485 488
145 1450 485 489
146 1299 547 549
147 1300 547 550
148 1422 547 551
149 1440 547 548
150 1420 502 551
151 1429 502 548
152 88 502 503
153 1435 502 504
154 1436 502 505
155 1437 502 506
156 1313 484 485
157 1314 484 486
158 1388 457 458
159 1389 457 459
160 292 496 498
161 1530 496 497
162 1533 496 499
163 1534 496 500
164 33 503 504
165 1626 503 505
166 1627 503 506
167 1004 503 507
168 1394 456 458
169 1397 456 457
170 1170 563 564
171 1173 563 565
172 1191 563 566
173 1192 563 567
174 1434 497 498
175 1537 497 500
176 1538 497 501
177 1578 497 499
178 1159 564 565
179 572 564 566
180 1160 564 567
181 1161 564 568
182 1120 573 576
183 1140 573 574
184 1141 573 575
185 1129 565 585
186 1162 565 566
187 1163 565 567
188 1164 565 568
189 1165 565 569
190 1166 565 587
191 1130 568 585
192 1143 568 571
193 1146 568 572
194 1181 568 569
195 1182 568 570
196 1261 458 462
197 1267 458 460
198 1405 458 459
199 1133 571 572
200 1134 571 573
201 1136 571 574
202 1137 571 575
203 1142 567 571
204 1178 567 568
205 1179 567 569
206 1180 567 570
207 1286 546 549
208 1287 546 550
209 1306 546 547
210 1310 546 548
211 1174 566 567
212 1175 566 568
213 1176 566 569
214 1177 566 570
215 1117 574 576
216 1151 574 575
217 1131 569 585
218 1144 569 571
219 1147 569 572
220 1149 569 573
221 1183 569 570
222 1145 570 571
223 1148 570 572
224 1150 570 573
225 1152 570 574
226 876 470 471
227 1217 470 472
228 1214 467 470
229 1140 467 468
230 853 467 469
231 1187 466 566
232 1188 466 569
233 1189 466 570
234 1213 466 470
235 1218 466 467
236 1219 466 468
237 1185 462 566
238 1186 462 567
239 1197 462 465
240 1223 462 466
241 1254 462 463
242 1257 462 464
243 1198 463 465
244 1224 463 466
245 486 463 464
246 1260 463 546
247 1195 461 465
248 1256 461 462
249 1259 461 463
250 1265 461 464
251 1184 465 570
252 1193 465 466
253 1194 465 467
254 1196 464 465
255 1221 464 466
256 1222 464 468
257 1215 468 470
258 1220 468 469
259 917 468 471
260 1226 471 472
261 1227 471 473
262 1228 471 545
263 1229 471 546
264 1308 543 546
265 1345 543 545
266 1438 543 547
267 1459 543 544
268 1255 460 462
269 1258 460 463
270 1263 460 461
271 1264 460 464
272 821 459 462
273 1262 459 463
274 1268 459 460
275 1269 459 461
276 1605 487 488
277 1606 487 489
278 1607 487 491
279 1608 487 493
280 1615 487 490
281 1613 491 493
282 1620 491 492
283 855 299 490
284 160 299 300
285 1682 299 301
286 1618 490 491
287 1684 490 492
288 1622 300 489
289 1623 300 491
290 1681 300 490
291 1650 300 301
292 1685 300 302
293 1315 481 484
294 1361 481 483
295 1423 481 552
296 1444 481 485
297 1445 481 486
298 1465 481 482
299 1451 486 487
300 1452 486 488
301 1453 486 489
302 1454 486 490
303 1311 480 484
304 1326 480 481
305 1330 480 482
306 1358 480 483
307 1612 489 491
308 1614 489 503
309 1617 489 490
310 1288 477 549
311 1317 477 480
312 1322 477 479
313 1325 477 481
314 1328 477 548
315 876 477 478
316 1312 483 484
317 1359 483 485
318 1360 483 486
319 1316 482 484
320 1357 482 483
321 1446 482 485
322 1447 482 486
323 1466 482 489
324 1324 479 480
325 1356 479 483
326 1370 479 482
327 1371 479 481
328 1329 478 480
329 1366 478 479
330 1455 478 481
331 1464 478 482
332 1321 476 477
333 1323 476 480
334 1362 476 479
335 1365 476 478
336 1327 475 477
337 1363 475 476
338 1364 475 479
339 1372 475 478
340 1320 474 477
341 1335 474 545
342 1338 474 475
343 1339 474 544
344 1341 474 541
345 1344 474 478
346 1369 474 476
347 1634 506 507
348 1635 506 508
349 436 506 509
350 1639 506 510
351 1309 544 546
352 519 544 545
353 1439 544 547
354 1456 544 548
355 1298 545 549
356 1305 545 546
357 1340 545 548
358 1343 545 547
359 1216 469 470
360 1225 469 471
361 1319 473 477
362 971 473 474
363 1334 473 545
364 1337 473 475
365 1368 473 476
366 1318 472 477
367 1331 472 473
368 1332 472 474
369 1333 472 545
370 1367 472 476
371 1307 542 546
372 1336 542 545
373 1350 542 544
374 1351 542 543
375 1373 537 538
376 1381 537 539
377 1382 537 540
378 1383 537 541
379 1347 538 542
380 698 538 539
381 1384 538 540
382 1385 538 541
383 1342 541 545
384 1349 541 542
385 1442 541 543
386 1457 541 544
387 1377 534 537
388 1379 534 538
389 1471 534 536
390 1481 534 535
391 1346 539 542
392 1353 539 540
393 1354 539 541
394 1374 533 537
395 1467 533 536
396 1459 533 534
397 1469 533 535
398 1352 535 539
399 1378 535 537
400 1380 535 538
401 1463 535 540
402 1472 535 536
403 1355 536 539
404 1375 536 537
405 1376 536 538
406 1461 536 540
407 1462 536 541
408 1348 540 542
409 1441 540 543
410 1460 540 541
411 220 139 141
412 244 139 140
413 98 138 139
414 99 138 140
415 82 118 121
416 83 118 122
417 84 118 138
418 88 118 119
419 95 118 139
420 96 118 140
421 102 118 120
422 45 117 120
423 46 117 118
424 47 117 121
425 50 117 119
426 7 120 124
427 55 120 123
428 103 120 121
429 104 120 122
430 54 119 120
431 89 119 121
432 91 119 122
433 109 119 123
434 5 121 124
435 29 121 125
436 85 121 122
437 86 121 138
438 90 121 123
439 112 18 19
440 113 18 123
441 123 18 20
442 6 122 124
443 30 122 125
444 87 122 138
445 92 122 123
446 93 122 137
447 97 122 139
448 100 122 126
449 3 123 124
450 32 123 125
451 41 123 127
452 114 123 126
453 1 124 127
454 2 124 128
455 4 124 126
456 27 124 125
457 1475 530 533
458 1482 530 532
459 1484 530 534
460 1501 530 531
461 126 135 136
462 127 135 137
463 128 136 137
464 129 136 138
465 94 137 138
466 130 137 139
467 10 134 135
468 11 134 136
469 12 134 137
470 9 133 134
471 28 133 135
472 8 132 134
473 14 132 133
474 21 131 132
475 22 131 133
476 13 125 133
477 15 125 127
478 16 125 128
479 23 125 137
480 26 125 126
481 31 125 138
482 33 127 128
483 34 127 129
484 17 128 132
485 19 128 133
486 35 128 129
487 36 128 130
488 38 126 127
489 39 126 128
490 40 126 129
491 18 129 132
492 20 129 133
493 37 129 130
494 43 129 131
495 24 130 132
496 25 130 133
497 42 130 131
498 1520 344 455
499 1524 344 346
500 1542 344 345
501 134 295 298
502 277 295 296
503 278 295 297
504 1575 492 494
505 1621 492 493
506 1921 410 412
507 1922 410 413
508 1923 410 414
509 891 410 411
510 1914 308 309
511 1915 308 310
512 1576 306 495
513 1810 306 492
514 1814 306 307
515 1815 306 308
516 1802 307 309
517 1232 307 308
518 2011 411 412
519 2012 411 413
520 318 411 414
521 2013 411 415
522 237 409 410
523 1890 409 412
524 1891 409 413
525 1892 409 411
526 2020 414 415
527 953 414 416
528 2022 414 417
529 2027 414 418
530 1532 495 496
531 1566 495 499
532 1568 495 500
533 1577 495 497
534 1458 505 548
535 1630 505 506
536 1631 505 507
537 1632 505 508
538 1633 505 509
539 1427 501 502
540 1428 501 551
541 1581 501 503
542 1583 501 504
543 1584 501 505
544 1266 453 460
545 1386 453 457
546 1392 453 456
547 1400 453 454
548 1401 453 458
549 1402 453 459
550 1409 453 455
551 1883 405 406
552 1884 405 409
553 1916 405 410
554 1920 405 413
555 1925 405 407
556 507 405 408
557 1426 500 502
558 1373 500 501
559 1580 500 503
560 1582 500 504
561 1390 343 457
562 1412 343 454
563 1515 343 344
564 1519 343 455
565 1541 343 345
566 1514 342 343
567 1164 342 344
568 1518 342 455
569 1522 338 342
570 1527 338 341
571 1768 338 339
572 1794 338 340
573 1761 346 347
574 1762 346 348
575 1763 346 350
576 1521 339 342
577 1528 339 341
578 1760 339 346
579 1769 339 340
580 1395 345 456
581 1535 345 351
582 1536 345 455
583 1539 345 347
584 1543 345 346
585 1391 455 457
586 1396 455 456
587 1879 406 409
588 1881 406 407
589 1885 406 408
590 1540 348 497
591 1557 348 351
592 1579 348 495
593 1587 348 500
594 1781 348 349
595 1783 348 350
596 1786 348 352
597 1556 347 351
598 1779 347 348
599 1780 347 349
600 1782 347 350
601 1558 349 351
602 1784 349 350
603 1785 349 406
604 1787 349 352
605 1788 349 353
606 1789 349 402
607 1887 402 406
608 1897 402 403
609 1918 402 405
610 1300 402 404
611 1547 350 351
612 1549 350 354
613 1791 350 352
614 1792 350 353
615 1544 351 354
616 1546 351 355
617 1551 351 352
618 1552 351 353
619 1586 351 501
620 1523 340 342
621 1529 340 341
622 1548 340 354
623 1790 340 350
624 1545 354 450
625 372 354 355
626 1550 354 358
627 1555 354 356
628 1559 354 357
629 1554 353 354
630 1591 353 355
631 1804 353 356
632 1805 353 357
633 1806 353 399
634 1807 353 402
635 1553 352 354
636 1585 352 501
637 1590 352 355
638 749 352 504
639 201 352 353
640 1803 352 356
641 1588 355 358
642 1589 355 504
643 1592 355 356
644 1593 355 359
645 1594 355 357
646 1598 357 358
647 1603 357 361
648 1393 357 359
649 1809 357 360
650 1600 356 358
651 1663 356 359
652 844 356 357
653 1808 356 360
654 1895 399 403
655 1927 399 400
656 1928 399 401
657 1929 399 402
658 160 504 505
659 1628 504 506
660 1629 504 507
661 1244 504 508
662 1561 358 449
663 1595 358 361
664 1596 358 359
665 1597 358 362
666 1599 358 360
667 1896 401 403
668 1917 401 405
669 1784 401 402
670 1932 401 404
671 1880 403 406
672 1893 403 407
673 1898 403 404
674 1924 403 405
675 1526 337 341
676 1767 337 339
677 1774 337 338
678 1793 337 340
679 1764 336 339
680 1765 336 337
681 1766 336 338
682 173 336 340
683 1772 332 336
684 1777 332 337
685 1797 332 333
686 386 332 335
687 1894 332 403
688 1905 332 334
689 773 400 403
690 387 400 401
691 1930 400 402
692 1931 400 404
693 1516 341 342
694 1517 341 343
695 1525 341 450
696 1406 451 452
697 1407 451 453
698 1408 451 454
699 1387 454 457
700 1393 454 456
701 1403 454 458
702 1404 454 459
703 1410 454 455
704 1888 404 406
705 1889 404 409
706 1899 404 407
707 1919 404 405
708 1942 404 413
709 1944 404 408
710 1398 452 453
711 1399 452 454
712 1770 333 336
713 1775 333 337
714 1798 333 334
715 1800 333 335
716 1411 450 452
717 1414 450 451
718 1562 448 449
719 1563 448 450
720 1413 449 451
721 1560 449 450
722 135 296 298
723 279 296 297
724 136 297 298
725 339 49 50
726 342 49 51
727 635 49 52
728 636 49 53
729 299 197 198
730 300 197 201
731 303 197 199
732 139 195 196
733 141 195 197
734 296 196 197
735 297 196 198
736 138 194 195
737 158 194 196
738 137 193 195
739 143 193 194
740 157 193 196
741 142 190 193
742 146 190 191
743 147 190 192
744 155 190 197
745 156 190 201
746 149 191 193
747 165 191 192
748 171 191 205
749 172 191 201
750 301 198 201
751 302 198 202
752 304 198 199
753 305 198 200
754 264 201 202
755 308 201 204
756 309 201 205
757 310 201 253
758 311 201 203
759 298 50 196
760 336 50 51
761 340 50 52
762 341 50 53
763 345 50 54
764 348 50 199
765 349 202 204
766 350 202 205
767 351 202 206
768 353 202 203
769 1960 309 310
770 1963 309 311
771 1968 309 313
772 150 192 193
773 151 192 194
774 1624 301 489
775 1625 301 491
776 1683 301 490
777 1813 301 492
778 1819 301 303
779 1836 301 302
780 617 305 307
781 708 305 306
782 1812 305 492
783 1824 305 309
784 1825 305 310
785 1828 305 308
786 1961 310 314
787 1964 310 311
788 1965 310 312
789 1969 310 313
790 1967 312 314
791 1996 312 316
792 1998 312 315
793 1886 312 313
794 1970 313 314
795 2034 313 417
796 2035 313 316
797 2036 313 418
798 2041 313 315
799 145 189 190
800 148 189 193
801 163 189 191
802 164 189 192
803 144 188 190
804 160 188 189
805 161 188 191
806 162 188 192
807 1966 311 314
808 1178 311 312
809 1997 311 315
810 1999 311 313
811 933 302 303
812 1820 302 304
813 1821 302 305
814 1837 302 310
815 159 187 190
816 174 187 188
817 175 187 189
818 176 187 191
819 170 184 188
820 289 184 186
821 291 184 187
822 295 184 185
823 1962 314 397
824 1971 314 417
825 1972 314 317
826 1973 314 316
827 1974 314 315
828 2043 315 317
829 1784 315 316
830 2054 315 318
831 2055 315 319
832 177 185 188
833 285 185 186
834 286 185 187
835 173 186 188
836 284 186 187
837 204 1 2
838 205 1 3
839 208 1 184
840 1801 304 307
841 1811 304 306
842 1818 304 305
843 1822 304 309
844 1823 304 310
845 1826 304 311
846 1827 304 308
847 1642 509 510
848 1646 509 511
849 1647 509 512
850 760 509 513
851 1816 303 304
852 1817 303 305
853 1936 398 399
854 1924 398 400
855 1939 398 401
856 1940 398 402
857 1638 359 508
858 1648 359 362
859 1649 359 363
860 1041 359 360
861 1660 359 361
862 1604 360 361
863 1658 360 362
864 1659 360 363
865 1676 360 364
866 1686 510 511
867 1687 510 512
868 1688 510 513
869 1689 510 514
870 63 507 508
871 1636 507 509
872 1640 507 510
873 1643 507 511
874 1637 508 509
875 1641 508 510
876 1644 508 511
877 1645 508 512
878 1699 514 515
879 1700 514 516
880 1703 514 517
881 1704 514 518
882 27 394 395
883 1975 394 397
884 1976 394 398
885 1980 394 396
886 1832 395 396
887 1833 395 397
888 114 395 398
889 1835 395 399
890 757 511 512
891 1690 511 513
892 1691 511 514
893 1692 511 515
894 1829 391 395
895 1842 391 392
896 1843 391 393
897 1845 391 394
898 1473 513 533
899 1696 513 514
900 1697 513 515
901 1698 513 516
902 1702 513 517
903 1701 515 516
904 1705 515 517
905 1706 515 518
906 1709 515 519
907 900 512 513
908 1693 512 514
909 1694 512 515
910 1695 512 516
911 1477 517 533
912 1729 517 518
913 1730 517 521
914 1732 517 519
915 1733 517 520
916 1839 387 391
917 1148 387 389
918 1866 387 390
919 1020 387 388
920 1870 387 392
921 1840 390 391
922 318 390 392
923 795 390 393
924 1838 386 391
925 1855 386 387
926 1864 386 389
927 1865 386 390
928 1869 386 388
929 1935 397 399
930 1937 397 400
931 1938 397 401
932 1977 397 398
933 1830 392 395
934 1978 392 394
935 1986 392 393
936 1987 392 396
937 1831 393 395
938 1979 393 394
939 1981 393 397
940 1988 393 396
941 1941 396 399
942 1402 396 400
943 1982 396 397
944 1983 396 398
945 1474 516 533
946 1489 516 532
947 1707 516 517
948 1708 516 518
949 1710 516 519
950 1711 516 520
951 1654 363 364
952 1655 363 365
953 1656 363 366
954 1657 363 512
955 386 363 367
956 1601 361 364
957 1602 361 365
958 1661 361 362
959 1662 361 363
960 1468 532 533
961 1470 532 536
962 1479 532 534
963 1480 532 535
964 1650 362 363
965 1651 362 364
966 1652 362 365
967 1653 362 366
968 1846 383 384
969 1847 383 385
970 1848 383 386
971 1849 383 387
972 1664 364 365
973 1665 364 366
974 1667 364 368
975 1670 364 367
976 1494 373 374
977 1495 373 375
978 1490 369 373
979 1719 369 370
980 1720 369 371
981 1721 369 372
982 1669 366 368
983 1672 366 367
984 1674 366 369
985 1675 366 370
986 1666 365 366
987 1668 365 368
988 1671 365 367
989 1673 365 369
990 1712 367 369
991 1713 367 370
992 1714 367 371
993 1715 367 383
994 1716 367 384
995 1717 367 387
996 1718 367 368
997 1677 368 369
998 1678 368 370
999 1679 368 371
1000 1307 368 372
1001 1680 368 384
1002 1493 372 373
1003 1726 372 374
1004 1491 370 373
1005 1722 370 371
1006 1723 370 372
1007 1724 370 374
1008 1492 371 373
1009 706 371 372
1010 1725 371 374
1011 1727 371 380
1012 1728 371 381
1013 1850 384 385
1014 1851 384 386
1015 1852 384 387
1016 1867 384 388
1017 213 145 147
1018 217 145 146
1019 334 147 148
1020 382 147 149
1021 332 146 148
1022 333 146 147
1023 335 148 149
1024 48 114 117
1025 56 114 116
1026 105 114 118
1027 218 114 141
1028 224 114 115
1029 225 114 140
1030 221 140 141
1031 242 140 142
1032 212 141 143
1033 219 141 142
1034 209 143 144
1035 210 143 145
1036 51 113 117
1037 59 113 116
1038 183 113 114
1039 184 113 115
1040 211 144 145
1041 216 144 146
1042 214 142 143
1043 215 142 144
1044 230 109 111
1045 392 109 110
1046 186 110 112
1047 231 110 111
1048 232 110 114
1049 235 110 115
1050 243 110 142
1051 687 37 38
1052 760 37 39
1053 229 108 111
1054 390 108 109
1055 391 108 110
1056 179 111 112
1057 182 111 113
1058 222 111 114
1059 223 111 115
1060 227 106 111
1061 233 106 115
1062 383 106 107
1063 384 106 108
1064 385 106 109
1065 386 106 110
1066 185 107 112
1067 228 107 111
1068 234 107 115
1069 387 107 108
1070 388 107 109
1071 389 107 110
1072 395 105 106
1073 398 105 107
1074 400 105 108
1075 401 105 109
1076 49 115 117
1077 57 115 116
1078 106 115 118
1079 118 115 119
1080 226 115 140
1081 752 33 36
1082 754 33 37
1083 766 33 34
1084 775 33 35
1085 58 112 116
1086 178 112 113
1087 180 112 114
1088 181 112 115
1089 72 15 16
1090 73 15 17
1091 74 15 18
1092 116 15 119
1093 44 116 117
1094 52 116 120
1095 53 116 119
1096 101 116 118
1097 65 14 15
1098 69 14 16
1099 70 14 17
1100 71 14 18
1101 111 17 19
1102 121 17 18
1103 122 17 20
1104 140 8 195
1105 152 8 193
1106 154 8 194
1107 189 8 9
1108 191 8 10
1109 200 8 196
1110 187 9 10
1111 192 9 11
1112 81 10 12
1113 193 10 11
1114 80 7 12
1115 153 7 194
1116 188 7 9
1117 190 7 10
1118 196 7 8
1119 59 7 11
1120 60 12 13
1121 61 12 14
1122 62 12 15
1123 66 12 16
1124 110 16 19
1125 119 16 17
1126 120 16 18
1127 124 16 99
1128 77 11 12
1129 78 11 13
1130 79 11 15
1131 125 11 16
1132 337 51 104
1133 343 51 52
1134 344 51 53
1135 346 51 54
1136 347 51 55
1137 403 51 108
1138 75 6 12
1139 76 6 13
1140 194 6 9
1141 195 6 10
1142 198 6 7
1143 199 6 8
1144 236 6 11
1145 238 6 100
1146 394 104 106
1147 397 104 107
1148 399 104 108
1149 406 104 105
1150 393 103 106
1151 396 103 107
1152 404 103 104
1153 405 103 105
1154 407 100 103
1155 409 100 104
1156 416 100 101
1157 454 100 102
1158 408 101 103
1159 410 101 104
1160 411 101 105
1161 119 101 102
1162 402 102 106
1163 412 102 103
1164 413 102 104
1165 414 102 105
1166 253 99 102
1167 255 99 100
1168 256 99 101
1169 257 99 103
1170 245 96 99
1171 246 96 97
1172 247 96 98
1173 254 96 100
1174 249 97 99
1175 417 97 100
1176 419 97 101
1177 457 97 98
1178 71 5 7
1179 237 5 6
1180 63 13 14
1181 64 13 15
1182 67 13 16
1183 68 13 17
1184 352 54 202
1185 374 54 206
1186 653 54 203
1187 655 54 56
1188 656 54 57
1189 657 54 58
1190 698 54 55
1191 637 52 53
1192 638 52 54
1193 640 52 55
1194 647 52 56
1195 415 55 104
1196 422 55 101
1197 694 55 56
1198 695 55 57
1199 696 55 58
1200 697 55 59
1201 359 205 206
1202 360 205 208
1203 362 205 209
1204 369 205 207
1205 424 209 210
1206 425 209 212
1207 426 209 213
1208 430 209 211
1209 168 4 192
1210 197 4 7
1211 240 4 5
1212 241 4 6
1213 250 98 99
1214 418 98 100
1215 420 98 101
1216 451 98 102
1217 166 3 191
1218 167 3 192
1219 203 3 4
1220 206 3 205
1221 207 3 209
1222 239 3 5
1223 201 2 3
1224 202 2 4
1225 1731 518 521
1226 1734 518 519
1227 1735 518 520
1228 1736 518 522
1229 708 521 522
1230 1739 521 523
1231 1744 522 523
1232 1745 522 524
1233 1478 520 533
1234 1488 520 532
1235 1504 520 529
1236 1505 520 530
1237 1738 520 521
1238 1742 520 522
1239 1743 520 523
1240 1496 528 529
1241 1497 528 530
1242 1498 528 531
1243 1476 531 533
1244 1483 531 532
1245 1485 531 534
1246 1486 531 535
1247 1499 529 530
1248 1500 529 531
1249 895 527 528
1250 1506 527 529
1251 1487 519 532
1252 1737 519 521
1253 1740 519 520
1254 1198 519 522
1255 1741 519 523
1256 1511 523 526
1257 1746 523 524
1258 1747 523 525
1259 1857 382 383
1260 1859 382 384
1261 1861 382 385
1262 1862 382 386
1263 1543 380 381
1264 1871 380 382
1265 1508 374 526
1266 1748 374 376
1267 1749 374 377
1268 1751 374 375
1269 1752 375 376
1270 1753 375 377
1271 1502 526 528
1272 1503 526 529
1273 1507 526 527
1274 1512 524 526
1275 1759 524 525
1276 1754 377 525
1277 1755 377 379
1278 1757 377 378
1279 1758 377 380
1280 1509 376 526
1281 1750 376 377
1282 596 376 525
1283 1756 376 378
1284 1510 525 526
1285 1513 525 527
1286 1875 378 380
1287 1876 378 379
1288 35 379 380
1289 1873 379 381
1290 1874 379 382
1291 767 29 30
1292 769 29 31
1293 771 29 33
1294 830 29 32
1295 107 19 119
1296 108 19 123
1297 115 19 20
1298 117 19 21
1299 131 20 21
1300 132 20 22
1301 133 20 23
1302 423 30 101
1303 453 30 102
1304 761 30 31
1305 762 30 33
1306 763 30 34
1307 768 30 32
1308 264 24 25
1309 265 24 26
1310 266 24 99
1311 267 24 102
1312 268 24 98
1313 251 93 96
1314 458 93 95
1315 460 93 97
1316 467 93 94
1317 475 93 213
1318 37 95 96
1319 248 95 99
1320 455 95 97
1321 456 95 98
1322 252 94 96
1323 459 94 95
1324 461 94 97
1325 462 94 98
1326 259 21 23
1327 261 21 24
1328 269 21 22
1329 258 23 24
1330 263 23 25
1331 452 25 102
1332 506 25 26
1333 507 25 29
1334 508 25 27
1335 509 25 98
1336 510 25 30
1337 260 22 23
1338 262 22 24
1339 463 26 98
1340 511 26 27
1341 512 26 28
1342 513 26 29
1343 514 26 30
1344 272 90 92
1345 464 90 95
1346 470 90 93
1347 473 90 94
1348 524 90 91
1349 273 91 92
1350 465 91 95
1351 471 91 93
1352 474 91 94
1353 466 27 98
1354 535 27 90
1355 776 27 30
1356 778 27 31
1357 831 27 29
1358 834 27 28
1359 270 88 92
1360 468 88 93
1361 519 88 89
1362 520 88 90
1363 521 88 91
1364 274 92 93
1365 275 92 94
1366 276 92 95
1367 2063 444 445
1368 1752 445 446
1369 2070 445 447
1370 566 290 292
1371 877 290 291
1372 14 289 290
1373 878 289 291
1374 281 294 295
1375 283 294 296
1376 567 291 292
1377 568 291 293
1378 560 292 293
1379 561 292 294
1380 2017 413 414
1381 2018 413 415
1382 2019 413 416
1383 2021 413 417
1384 2014 412 413
1385 2015 412 414
1386 2016 412 415
1387 331 412 416
1388 2106 446 447
1389 2061 443 444
1390 2062 443 445
1391 2058 442 443
1392 2059 442 444
1393 2060 442 445
1394 2068 442 446
1395 2069 442 447
1396 2064 441 442
1397 2065 441 443
1398 2066 441 444
1399 2067 441 445
1400 728 415 416
1401 2023 415 417
1402 2028 415 418
1403 2029 415 419
1404 2073 438 439
1405 2074 437 438
1406 2075 437 439
1407 2076 436 437
1408 2081 436 438
1409 2024 416 417
1410 2025 416 436
1411 2026 416 437
1412 2030 416 418
1413 2019 416 419
1414 2031 416 420
1415 2080 435 436
1416 1786 435 437
1417 1886 408 409
1418 1926 408 410
1419 2002 408 440
1420 2007 408 412
1421 2008 408 413
1422 2009 408 438
1423 2010 408 439
1424 2006 439 440
1425 2071 439 442
1426 2072 439 441
1427 2003 440 442
1428 2004 440 443
1429 2005 440 444
1430 1153 440 441
1431 1799 329 333
1432 1908 329 330
1433 1023 329 331
1434 1912 329 332
1435 1882 407 409
1436 1686 407 408
1437 1771 335 336
1438 1776 335 337
1439 1907 328 330
1440 1910 328 331
1441 1911 328 332
1442 1933 328 399
1443 1934 328 400
1444 1948 328 329
1445 1773 334 336
1446 1778 334 337
1447 1878 334 335
1448 1796 331 333
1449 1877 331 335
1450 1903 331 332
1451 1904 331 334
1452 1795 330 333
1453 1900 330 331
1454 1901 330 332
1455 1902 330 334
1456 1906 327 330
1457 1909 327 331
1458 1947 327 328
1459 673 327 329
1460 338 48 50
1461 633 48 49
1462 634 48 52
1463 644 46 47
1464 646 46 48
1465 929 46 157
1466 643 45 47
1467 927 45 46
1468 928 45 157
1469 931 45 156
1470 938 45 158
1471 939 45 159
1472 306 199 201
1473 354 199 202
1474 600 199 200
1475 602 199 203
1476 891 263 264
1477 892 263 265
1478 893 263 266
1479 894 263 267
1480 880 260 261
1481 881 260 262
1482 883 260 263
1483 884 260 264
1484 887 262 263
1485 888 262 264
1486 889 262 265
1487 890 262 266
1488 895 264 265
1489 896 264 266
1490 897 264 267
1491 898 264 268
1492 882 261 262
1493 885 261 263
1494 886 261 264
1495 647 261 265
1496 573 256 257
1497 574 256 258
1498 575 256 259
1499 587 256 264
1500 594 256 260
1501 595 256 261
1502 307 200 201
1503 355 200 202
1504 381 200 204
1505 601 200 253
1506 603 200 203
1507 604 200 256
1508 605 200 257
1509 579 253 255
1510 581 253 256
1511 583 253 257
1512 606 253 254
1513 908 159 160
1514 902 158 159
1515 907 158 160
1516 576 257 258
1517 577 257 259
1518 596 257 260
1519 629 47 48
1520 630 47 49
1521 631 47 52
1522 632 47 53
1523 645 47 157
1524 651 47 199
1525 591 252 255
1526 592 252 256
1527 612 252 253
1528 613 252 254
1529 63 265 266
1530 1012 265 267
1531 1013 265 268
1532 1014 265 269
1533 564 259 292
1534 565 259 293
1535 588 259 263
1536 589 259 264
1537 598 259 260
1538 599 259 261
1539 569 255 256
1540 570 255 257
1541 571 255 258
1542 572 255 259
1543 586 255 264
1544 593 255 260
1545 580 254 255
1546 582 254 256
1547 584 254 257
1548 585 254 258
1549 563 258 292
1550 578 258 259
1551 597 258 260
1552 1043 160 161
1553 1044 160 162
1554 940 157 158
1555 941 157 159
1556 280 293 295
1557 282 293 296
1558 562 293 294
1559 2079 434 436
1560 63 434 435
1561 590 251 255
1562 607 251 253
1563 609 251 254
1564 624 251 252
1565 2051 316 318
1566 2052 316 317
1567 2053 316 421
1568 2077 419 436
1569 2086 419 420
1570 2087 419 421
1571 2088 419 422
1572 2094 419 423
1573 2037 417 418
1574 2038 417 419
1575 2039 417 420
1576 2040 417 421
1577 2078 420 436
1578 412 420 421
1579 2089 420 422
1580 2091 420 424
1581 2095 420 423
1582 2100 420 435
1583 2082 418 419
1584 2083 418 420
1585 2084 418 421
1586 2085 418 422
1587 169 183 188
1588 288 183 186
1589 290 183 187
1590 294 183 185
1591 321 183 184
1592 2093 422 424
1593 2097 422 423
1594 934 422 425
1595 2099 422 426
1596 2090 421 422
1597 2092 421 424
1598 2096 421 423
1599 2098 421 425
1600 221 423 424
1601 2105 423 425
1602 1981 423 431
1603 2111 423 426
1604 2101 424 425
1605 2102 424 426
1606 2112 426 431
1607 2120 426 427
1608 2121 426 428
1609 2122 426 430
1610 2103 425 427
1611 2104 425 426
1612 287 182 186
1613 293 182 185
1614 319 182 183
1615 320 182 184
1616 292 181 185
1617 316 181 182
1618 317 181 183
1619 318 181 184
1620 2042 317 321
1621 2044 317 318
1622 2045 317 319
1623 2046 317 421
1624 1085 318 319
1625 2056 318 320
1626 2057 318 321
1627 2113 427 431
1628 2117 427 428
1629 2123 427 429
1630 2124 427 430
1631 2114 431 432
1632 2115 431 433
1633 2110 428 431
1634 2118 428 429
1635 2119 428 430
1636 2108 432 433
1637 2109 432 434
1638 326 178 180
1639 327 178 181
1640 328 178 182
1641 616 178 179
1642 322 179 180
1643 323 179 181
1644 324 179 182
1645 325 179 183
1646 608 179 254
1647 615 179 251
1648 667 179 250
1649 621 174 179
1650 628 174 178
1651 681 174 176
1652 684 174 175
1653 969 174 247
1654 618 173 251
1655 685 173 175
1656 913 173 174
1657 914 173 247
1658 915 173 248
1659 1844 388 391
1660 1989 388 392
1661 973 388 389
1662 2001 388 390
1663 1841 389 391
1664 1991 389 392
1665 1992 389 393
1666 2000 389 390
1667 1913 326 330
1668 1949 326 327
1669 1950 326 328
1670 1951 326 329
1671 1957 323 325
1672 1958 323 327
1673 1959 323 328
1674 333 323 324
1675 1995 323 396
1676 1834 325 395
1677 1945 325 327
1678 1946 325 328
1679 1673 325 329
1680 1118 325 326
1681 1953 325 392
1682 1954 325 396
1683 1952 324 325
1684 1955 324 327
1685 1956 324 328
1686 1985 324 396
1687 1994 324 326
1688 1993 319 393
1689 2049 319 320
1690 2050 319 321
1691 1943 322 400
1692 1984 322 397
1693 113 322 324
1694 1990 322 396
1695 2033 322 323
1696 2032 321 323
1697 441 321 322
1698 2047 320 321
1699 2048 320 322
1700 1853 385 386
1701 1854 385 387
1702 1863 385 389
1703 1868 385 388
1704 1856 381 383
1705 1858 381 384
1706 1860 381 385
1707 1872 381 382
1708 690 34 38
1709 753 34 36
1710 755 34 37
1711 406 34 35
1712 780 34 39
1713 688 38 39
1714 689 38 40
1715 691 38 41
1716 692 38 42
1717 686 36 38
1718 675 36 37
1719 759 36 39
1720 642 44 47
1721 924 44 45
1722 925 44 46
1723 926 44 157
1724 930 44 156
1725 693 35 38
1726 757 35 36
1727 758 35 37
1728 979 35 39
1729 650 41 52
1730 934 41 44
1731 851 41 42
1732 982 41 43
1733 976 40 41
1734 977 40 42
1735 978 40 43
1736 981 40 44
1737 973 39 40
1738 974 39 41
1739 975 39 42
1740 223 39 43
1741 980 39 150
1742 936 43 44
1743 937 43 45
1744 985 43 152
1745 987 43 150
1746 1003 150 151
1747 1004 150 152
1748 721 42 56
1749 935 42 44
1750 983 42 43
1751 984 42 152
1752 986 42 150
1753 989 151 152
1754 990 151 153
1755 361 206 208
1756 363 206 209
1757 364 206 210
1758 237 206 207
1759 356 204 205
1760 357 204 206
1761 358 204 208
1762 367 204 207
1763 368 204 250
1764 376 204 253
1765 377 204 254
1766 1047 161 162
1767 480 161 163
1768 1048 161 164
1769 1049 161 165
1770 904 156 158
1771 906 156 159
1772 933 156 157
1773 950 156 161
1774 953 156 160
1775 372 203 204
1776 373 203 205
1777 375 203 206
1778 654 203 207
1779 659 203 253
1780 903 155 158
1781 905 155 159
1782 932 155 157
1783 944 155 156
1784 949 155 161
1785 951 155 162
1786 952 155 160
1787 639 53 54
1788 641 53 55
1789 648 53 56
1790 649 53 57
1791 652 53 199
1792 380 58 206
1793 421 58 101
1794 706 58 59
1795 707 58 60
1796 710 58 61
1797 716 58 62
1798 942 154 155
1799 943 154 156
1800 379 57 206
1801 658 57 203
1802 703 57 58
1803 704 57 59
1804 705 57 60
1805 709 57 61
1806 699 56 57
1807 700 56 58
1808 701 56 59
1809 702 56 60
1810 714 56 152
1811 946 153 154
1812 947 153 155
1813 948 153 156
1814 429 61 210
1815 662 61 207
1816 723 61 64
1817 724 61 62
1818 725 61 63
1819 726 61 65
1820 712 60 61
1821 713 60 64
1822 715 60 152
1823 719 60 62
1824 720 60 63
1825 722 60 154
1826 945 152 154
1827 988 152 153
1828 708 59 60
1829 711 59 61
1830 717 59 62
1831 718 59 63
1832 729 64 65
1833 730 64 66
1834 731 64 68
1835 732 64 242
1836 733 64 67
1837 727 62 64
1838 781 62 63
1839 782 62 65
1840 783 62 66
1841 728 63 64
1842 784 63 65
1843 785 63 66
1844 789 63 67
1845 614 249 253
1846 625 249 251
1847 663 249 250
1848 909 249 252
1849 370 207 208
1850 433 207 209
1851 434 207 210
1852 660 207 250
1853 664 207 211
1854 623 248 251
1855 666 248 250
1856 910 248 252
1857 956 248 249
1858 427 210 212
1859 428 210 213
1860 431 210 211
1861 432 210 214
1862 674 245 246
1863 954 245 249
1864 959 245 247
1865 960 245 248
1866 1050 162 163
1867 1051 162 164
1868 1052 162 165
1869 1056 162 166
1870 610 250 253
1871 611 250 254
1872 668 250 251
1873 669 250 252
1874 786 65 66
1875 787 65 68
1876 790 65 67
1877 792 65 69
1878 794 65 214
1879 970 165 248
1880 823 165 166
1881 1061 165 167
1882 1063 165 168
1883 661 246 250
1884 675 246 247
1885 676 246 248
1886 680 246 249
1887 677 242 246
1888 963 242 244
1889 965 242 245
1890 993 242 243
1891 365 208 209
1892 366 208 210
1893 371 208 212
1894 378 208 211
1895 437 213 215
1896 439 213 216
1897 440 213 217
1898 446 213 214
1899 435 212 213
1900 436 212 215
1901 438 212 216
1902 444 212 214
1903 312 180 181
1904 313 180 182
1905 314 180 183
1906 315 180 184
1907 619 175 179
1908 626 175 178
1909 671 175 176
1910 682 175 177
1911 683 175 247
1912 330 177 180
1913 331 177 181
1914 620 177 179
1915 627 177 178
1916 622 247 251
1917 665 247 250
1918 955 247 249
1919 815 247 248
1920 329 176 180
1921 617 176 179
1922 670 176 246
1923 672 176 177
1924 646 176 247
1925 679 176 178
1926 673 244 246
1927 598 244 245
1928 957 244 247
1929 958 244 248
1930 443 211 212
1931 445 211 213
1932 447 211 215
1933 734 211 214
1934 678 243 246
1935 964 243 244
1936 966 243 245
1937 967 243 247
1938 743 239 240
1939 748 239 241
1940 749 239 242
1941 750 239 243
1942 751 239 244
1943 968 240 244
1944 994 240 241
1945 995 240 242
1946 996 240 243
1947 441 215 216
1948 442 215 217
1949 449 215 219
1950 450 215 218
1951 962 241 244
1952 991 241 242
1953 992 241 243
1954 736 238 239
1955 741 238 240
1956 718 238 241
1957 746 238 242
1958 747 238 243
1959 448 214 215
1960 484 214 216
1961 485 214 217
1962 735 214 218
1963 740 236 238
1964 742 236 239
1965 999 236 240
1966 1001 236 237
1967 744 237 238
1968 745 237 239
1969 997 237 241
1970 998 237 242
1971 1002 237 240
1972 476 216 217
1973 477 216 219
1974 478 216 220
1975 482 216 218
1976 738 235 238
1977 739 235 239
1978 811 235 237
1979 814 235 236
1980 756 32 36
1981 772 32 33
1982 773 32 34
1983 833 32 35
1984 515 87 88
1985 516 87 89
1986 517 87 90
1987 518 87 91
1988 271 89 92
1989 469 89 93
1990 472 89 94
1991 522 89 90
1992 523 89 91
1993 777 28 30
1994 779 28 31
1995 136 28 29
1996 832 28 32
1997 764 31 33
1998 765 31 34
1999 770 31 32
2000 774 31 35
2001 800 67 68
2002 854 67 69
2003 1005 67 70
2004 1006 67 71
2005 788 66 68
2006 791 66 67
2007 793 66 69
2008 795 66 70
2009 846 70 72
2010 849 70 73
2011 991 70 71
2012 1008 70 74
2013 528 86 87
2014 529 86 88
2015 530 86 89
2016 531 86 90
2017 536 83 87
2018 542 83 85
2019 558 83 84
2020 837 83 86
2021 534 69 89
2022 538 69 85
2023 835 69 86
2024 838 69 72
2025 839 69 73
2026 844 69 70
2027 845 69 71
2028 796 68 69
2029 797 68 72
2030 798 68 70
2031 799 68 71
2032 847 71 72
2033 850 71 73
2034 521 71 74
2035 1009 71 75
2036 541 82 85
2037 557 82 84
2038 836 82 86
2039 869 82 83
2040 858 74 76
2041 1010 74 75
2042 539 73 85
2043 842 73 76
2044 843 73 82
2045 851 73 74
2046 853 73 75
2047 525 85 87
2048 526 85 88
2049 527 85 89
2050 543 85 86
2051 532 84 87
2052 533 84 88
2053 537 84 85
2054 559 84 86
2055 489 220 222
2056 490 220 223
2057 493 220 221
2058 494 220 224
2059 840 72 73
2060 841 72 76
2061 848 72 74
2062 852 72 75
2063 540 81 85
2064 556 81 84
2065 867 81 82
2066 868 81 83
2067 501 218 219
2068 502 218 220
2069 503 218 222
2070 551 218 221
2071 801 218 234
2072 802 218 235
2073 486 219 220
2074 487 219 222
2075 488 219 223
2076 492 219 221
2077 479 217 219
2078 480 217 220
2079 481 217 221
2080 483 217 218
2081 805 232 234
2082 807 232 235
2083 150 232 233
2084 829 232 236
2085 499 223 224
2086 500 223 225
2087 546 224 225
2088 547 224 226
2089 495 221 222
2090 498 221 223
2091 544 221 224
2092 545 221 225
2093 737 234 238
2094 803 234 235
2095 809 234 237
2096 813 234 236
2097 808 233 234
2098 810 233 235
2099 1000 233 236
2100 1007 233 237
2101 856 75 76
2102 1011 75 77
2103 491 222 223
2104 496 222 224
2105 497 222 225
2106 504 222 234
2107 505 222 231
2108 804 231 234
2109 806 231 235
2110 258 231 232
2111 828 231 233
2112 812 230 234
2113 825 230 231
2114 826 230 232
2115 860 230 233
2116 548 225 226
2117 549 225 227
2118 550 225 230
2119 552 225 231
2120 855 76 78
2121 857 76 77
2122 875 76 82
2123 818 229 231
2124 819 229 232
2125 823 229 230
2126 827 229 233
2127 553 226 227
2128 554 226 228
2129 820 227 228
2130 822 227 229
2131 824 227 231
2132 859 227 230
2133 815 228 229
2134 816 228 231
2135 817 228 232
2136 821 228 230
2137 874 77 79
2138 876 77 78
2139 412 79 80
2140 861 79 81
2141 862 79 82
2142 863 79 83
2143 555 80 84
2144 864 80 81
2145 865 80 82
2146 866 80 83
2147 870 78 79
2148 871 78 80
2149 872 78 81
2150 873 78 82
2151 1015 266 267
2152 1016 266 268
2153 1017 266 269
2154 1024 266 270
2155 1020 268 269
2156 1022 268 271
2157 1026 268 270
2158 1029 268 272
2159 766 270 271
2160 1066 270 273
2161 1067 270 274
2162 1068 270 272
2163 1023 269 271
2164 1027 269 270
2165 1028 269 273
2166 1030 269 272
2167 1069 273 274
2168 1071 273 275
2169 1072 273 276
2170 1077 273 277
2171 1070 272 273
2172 1073 272 274
2173 1083 272 275
2174 1084 272 276
2175 901 267 289
2176 1018 267 268
2177 1019 267 269
2178 1021 267 271
2179 1025 267 270
2180 1097 277 278
2181 1098 277 279
2182 1099 277 281
2183 1100 277 282
2184 611 271 287
2185 1031 271 286
2186 1035 271 273
2187 1036 271 274
2188 1037 271 272
2189 1038 271 275
2190 1074 274 275
2191 1075 274 276
2192 1076 274 282
2193 1078 274 277
2194 1086 276 277
2195 1088 276 278
2196 1085 275 276
2197 859 275 277
2198 1087 275 278
2199 899 287 289
2200 476 287 288
2201 1092 278 280
2202 1094 278 281
2203 1095 278 282
2204 1101 278 279
2205 1081 282 283
2206 1082 282 284
2207 879 288 290
2208 900 288 289
2209 1055 164 165
2210 1059 164 166
2211 1060 164 167
2212 1062 164 168
2213 923 168 172
2214 972 168 170
2215 576 168 169
2216 353 433 434
2217 2107 433 435
2218 2090 430 431
2219 2125 430 432
2220 1040 283 285
2221 1079 283 284
2222 1033 286 287
2223 1034 286 288
2224 1041 284 285
2225 1042 284 286
2226 1032 285 287
2227 1039 285 286
2228 2116 429 431
2229 2126 429 430
2230 1093 279 280
2231 574 279 281
2232 1096 279 282
2233 912 172 173
2234 918 172 174
2235 1046 167 168
2236 1065 167 169
2237 1045 166 168
2238 1064 166 167
2239 1053 163 164
2240 1054 163 165
2241 1057 163 166
2242 1058 163 167
2243 911 171 173
2244 486 171 172
2245 917 171 174
2246 921 169 171
2247 922 169 172
2248 971 169 170
2249 916 170 173
2250 919 170 171
2251 920 170 172
2252 961 170 244
2253 1080 281 283
2254 1091 281 282
2255 1089 280 281
2256 1090 280 282
